 $CONTRL RUNTYP=energy 
         MAXIT=50 $END 
 $SYSTEM MWORDS=500 $END
 $SCF DIRSCF=.TRUE. NPUNCH=0 $END
 $BASIS NGAUSS=6 GBASIS=N31 $END
 $DATA
Largest dimer from MSN single pore
C1 
O     -6.240220   16.019230    7.770170
O     -7.785450   17.971340    8.654330
O     -4.376350   11.352920    7.158610
O     -6.065360   16.706550   10.288410
O     -5.138810   18.354490    8.393690
O     -3.244590   19.815400    7.254170
O     -2.038360   10.496320    8.142960
O     -3.663250   12.105570    9.601690
O     -4.522450   14.522090   10.262360
O     -3.814920   16.665890   11.701900
O     -3.256850   17.151420    7.050330
O     -2.450720   18.268080   13.317040
O     -2.617050   18.295570    9.384100
O     -2.523070   13.426570   11.558260
O     -3.198250   15.814800   14.156640
O     -1.281560   16.107770   12.309630
O      0.723260   17.723810   12.835290
O     -0.057350   12.518420   11.934700
O     -1.587160   13.286080   14.038250
O      1.123760   15.437510   11.458760
O      0.559440   15.333610   14.080760
Si    -6.307390   17.272600    8.779500
Si    -3.594810   10.900150    8.493780
Si    -5.079800   15.766770   11.163040
Si    -3.574360   18.411260    8.032680
Si    -3.221820   13.568690   10.094090
Si    -2.701920   16.712560   12.864200
Si    -1.589750   12.552230   12.546680
Si     0.287780   16.152550   12.663200
H     -8.440020   17.547880    8.110450
H     -2.988580   19.772830    6.337760
H     -1.640380   10.888060    7.370910
H     -2.980040   18.591230   14.032060
H     -2.953380   17.803920   10.126910
H     -3.141560   14.866930   14.080310
H      0.010920   18.346320   12.920320
H      0.275890   13.315850   11.533260
H     -0.869740   13.891160   14.200340
H      1.326020   15.586590   14.574470
O    -13.121210   14.235310    0.391060
O    -13.913070   15.372230    2.665500
O    -10.781010   12.618120   -0.283510
O    -11.499180   14.255770    2.444990
O    -11.994340   16.549340    1.165990
O    -10.614080   18.597700    0.149130
O     -9.850450   10.234720   -1.078190
O     -9.205060   11.146640    1.339880
O     -9.774210   12.574980    3.502430
O     -9.708050   15.172350    4.224670
O     -9.417930   16.270250    0.704330
O    -10.192300   16.146420    6.657360
O    -10.245220   17.831900    2.711310
O     -7.818990   10.831880    3.593930
O     -7.970860   14.776660    6.208250
O     -8.271730   17.206980    5.123250
O     -7.644740   19.046180    3.282480
O     -6.601580    9.315800    5.401320
O     -6.125220   11.967200    5.305590
O     -6.149920   13.337630    7.532610
O     -6.754910   16.582190    3.071830
O     -5.751580   18.149600    5.008830
Si   -12.634700   15.124550    1.668660
Si   -10.397370   11.104700    0.211710
Si   -10.657660   13.910900    3.776100
Si   -10.578890   17.316530    1.170570
Si    -8.602140   11.889970    2.632140
Si    -9.037630   15.814420    5.541790
Si    -7.261160   10.799610    5.113760
Si    -7.119840   14.646470    7.579200
Si    -7.115480   17.754340    4.143470
Si    -5.199740   12.571810    6.471490
H    -12.435390   13.798910   -0.105460
H    -14.586620   14.699910    2.648560
H    -10.077990   13.187210   -0.582090
H    -10.076470   18.556160   -0.636310
H    -10.433690    9.586530   -1.445830
H    -10.622110   15.408270    7.077030
H    -10.193830   17.157990    3.383170
H     -8.543200   19.009840    2.968570
H     -6.278390    9.148600    6.280880
H     -5.716880   17.904290    5.927760
H     -3.799381   17.210075    6.276361
H      0.970434   15.903034   10.648459
O     -4.320025    9.565809    9.125936
O     -5.918692   15.154541   12.438760
O     -2.192746   14.220561    8.988605
O     -2.153986   11.013028   12.682764
H     -9.598875   15.969338   -0.175170
H     -6.075600   16.887387    2.486849
O    -11.742558   10.415407    0.860839
O    -11.695280   13.633892    5.022148
O     -7.560853   13.040290    2.085779
O     -8.487554   11.075090    6.174936
O     -8.138458   14.455348    8.856664
O     -4.110702   13.656075    5.884641
H     -4.287617    8.860205    8.495158
H     -6.645537   14.637966   12.119924
H     -2.630380   14.288461    8.151542
H     -2.153248   10.600050   11.830557
H    -12.430183   10.391237    0.210150
H    -12.264728   12.909467    4.803638
H     -8.026337   13.648540    1.528854
H     -8.864330   11.927625    6.007506
H     -8.643425   13.662479    8.741878
H     -3.543147   13.226759    5.259838
 $END