 $CONTRL RUNTYP=energy 
         MAXIT=50 $END 
 $SYSTEM MWORDS=500 $END
 $SCF DIRSCF=.TRUE. NPUNCH=0 $END
 $BASIS NGAUSS=6 GBASIS=N31 $END
 $DATA
Largest monomer from MSN single pore
C1 
O    -13.121210   14.235310    0.391060
O    -13.913070   15.372230    2.665500
O    -10.781010   12.618120   -0.283510
O    -11.499180   14.255770    2.444990
O    -11.994340   16.549340    1.165990
O    -10.614080   18.597700    0.149130
O     -9.850450   10.234720   -1.078190
O     -9.205060   11.146640    1.339880
O     -9.774210   12.574980    3.502430
O     -9.708050   15.172350    4.224670
O     -9.417930   16.270250    0.704330
O    -10.192300   16.146420    6.657360
O    -10.245220   17.831900    2.711310
O     -7.818990   10.831880    3.593930
O     -7.970860   14.776660    6.208250
O     -8.271730   17.206980    5.123250
O     -7.644740   19.046180    3.282480
O     -6.601580    9.315800    5.401320
O     -6.125220   11.967200    5.305590
O     -6.149920   13.337630    7.532610
O     -6.754910   16.582190    3.071830
O     -5.751580   18.149600    5.008830
Si   -12.634700   15.124550    1.668660
Si   -10.397370   11.104700    0.211710
Si   -10.657660   13.910900    3.776100
Si   -10.578890   17.316530    1.170570
Si    -8.602140   11.889970    2.632140
Si    -9.037630   15.814420    5.541790
Si    -7.261160   10.799610    5.113760
Si    -7.119840   14.646470    7.579200
Si    -7.115480   17.754340    4.143470
Si    -5.199740   12.571810    6.471490
H    -12.435390   13.798910   -0.105460
H    -14.586620   14.699910    2.648560
H    -10.077990   13.187210   -0.582090
H    -10.076470   18.556160   -0.636310
H    -10.433690    9.586530   -1.445830
H    -10.622110   15.408270    7.077030
H    -10.193830   17.157990    3.383170
H     -8.543200   19.009840    2.968570
H     -6.278390    9.148600    6.280880
H     -5.716880   17.904290    5.927760
H     -9.598875   15.969338   -0.175170
H     -6.075600   16.887387    2.486849
O    -11.742558   10.415407    0.860839
O    -11.695280   13.633892    5.022148
O     -7.560853   13.040290    2.085779
O     -8.487554   11.075090    6.174936
O     -8.157587   14.504780    8.847675
O     -6.187079   15.990318    7.752562
O     -4.118049   13.631478    5.828782
O     -4.374552   11.362746    7.221993
H    -12.430183   10.391237    0.210150
H    -12.264728   12.909467    4.803638
H     -8.026337   13.648540    1.528854
H     -8.864330   11.927625    6.007506
H     -8.688224   13.728374    8.736197
H     -5.594764   16.060486    7.017002
H     -3.563772   13.179312    5.208192
H     -3.821423   10.920520    6.593269
