 $MP2
    code=omprimp2
 $END
 $AUXBAS
    cabnam=ccd
 $END
 $INTGRL
    intomp=1
 $END
 $CONTRL 
    RUNTYP=ENERGY 
    mplevl=2
    local=ruednbrg
    maxit=100 
 $END
 $SYSTEM 
    MWORDS=11000
    mem10=500000000 
    timlim=100000000
    memddi=10000
 $END
 $LOCAL
    cvgloc=1.0E-6
    fcore=.true.
 $END
 $GDDI 
    NGROUP=1 
 $END
 $scf 
    dirscf=.t. 
    NPUNCH=0 
 $end
 $FMOPRP
    NGRFMO(1)=1, 1, 0, 0, 0,   0, 0, 0, 0, 0,
    NPRINT=0
 $END
 $FMO
      nbody=2
      iefmo=1
      resdim=0.5
      rcorsd=0.5
      modefm(1)=0, 0, 0, 1, 1
      RAFO(1)=0.1, 1.0, 1.0
      MAXCAO=9
      MAXBND=148
      NFRAG=21
      ICHARG(1)=   0,  0,  0,  0,  0,  0,  0,  0,  0,  0,
                   0,  0,  0,  0,  0,  0,  0,  0,  0,  0,
                   0
      FRGNAM(1)= Frag1, Frag2, Frag3, Frag4, Frag5, 
                 Frag6, Frag7, Frag8, Frag9, Frag10, 
                 Frag11, Frag12, Frag13, Frag14, Frag15, 
                 Frag16, Frag17, Frag18, Frag19, Frag20, 
                 Frag21
      INDAT(1)= 0
               13     14     25     27     29     30     48     50
               53     55     77     79     82     85     87    119
              121    124    126    162    164    167    170    173
              216    217    220    222    264    265    267    269
              317    858    864    866    875    878    890    893
              908    911    930    933    951    953    973   1357
             1360   1362   1376   1379   1398   1402   1429   1431
             1453      0
                5      6     16     17     19     38     40     41
               43     45     67     69     70     72    108    110
              112    114    116    152    154    155    157    206
              208    210    211    213    257    259    260    261
              315    316    854    860    861    871    872    886
              887    904    905    926    927    948    949    972
             1353   1354   1359   1368   1371   1390   1393   1416
             1419   1427   1451   1452      0
                1     -4      7    -12     18     20     21    -24
               26     28     42     44     46     47     49     51
               71     73     74    -76     78     80     83    113
              115    117    118    120    122    156    158   -161
              163    165    168    212    214    215    218    262
              263    852    853    855    856    857    862    863
              865    873    874    876    888    889    891    906
              907    909    928    929    931    950   1206  -1227
             1350  -1352   1355   1356   1361   1370   1378   1392
             1400   1418   1420   1428   1647  -1655      0
               31     32     52     54     56     57     81     84
               86     89     91    123    125    128    130    166
              169    172    175    178    219    221    224    226
              266    268    271    273    276    318    319    322
              362    363    867    877    879    892    895    910
              913    932    935    952    955    974    976    992
             1363   1364   1372   1377   1381   1399   1404   1430
             1434   1454   1467   1468      0
               58     59     88     90     92     93    127    129
              132    134    171    174    177    180    182    223
              225    228    230    270    272    275    279    282
              320    321    324    327    364    365    367    371
              405    880    894    896    912    915    934    937
              954    957    975    979    993    995   1011   1373
             1380   1382   1401   1405   1432   1436   1469   1473
             1488      0
               33     34     61     62     64     99    101    102
              104    106    144    146    147    149    195    198
              200    202    204    248    251    252    254    302
              306    308    309    311    353    357    358    359
              403    404    868    882    883    900    901    922
              923    944    945    968    969    989    990   1010
             1365   1366   1375   1386   1389   1411   1415   1444
             1449   1465   1486   1487      0
               15     35     36     37     39     63     65     66
               68    103    105    107    109    111    148    150
              151    153    201    203    205    207    209    253
              255    256    258    310    312   -314    360    361
              859    869    870    884    885    902    903    924
              925    946    947    970    971    991   1358   1367
             1369   1388   1391   1414   1417   1448   1450   1466
                0
               94     95    131    133    135   -138    176    179
              181    183    184   -187    227    229    231   -238
              274    278    281    284    285    287    288   -290
              323    326    329    330    332    333    335    336
              338    339    366    370    374    377    378    381
              382    384    385    406    409    412    415    416
              418    419    421    422    436    439    444    447
              449    450    472    475    478    509    897    914
              916    917    936    938    939    956    958   -961
              978    981    982    994    997    998   1000   1001
             1014   1017   1018   1025   1028   1030   1031   1041
             1052   1383   1384   1394   1395   1403   1406  -1408
             1421   1422   1433   1438   1439   1440   1457   1458
             1470   1475   1477   1478   1491   1493   1494   1500
             1503   1505   1506   1517   1520   1534      0
               60     96     97     98    100    140    142    143
              145    190    192    194    197    199    242    245
              247    250    295    298    301    305    307    345
              349    352    356    395    398    401    402    432
              435    881    898    899    920    921    941    943
              966    967    985    988   1008   1009   1024   1374
             1385   1387   1410   1413   1443   1447   1482   1485
             1499      0
              139    141    188    189    191    193    196    239
              240    241    244    246    249    291    292   -294
              297    300    304    341    342    344    348    351
              355    387    388    390    391    394    397    400
              424    426    429    431    434    452    454    457
              460    463    488    491    918    919    940    942
              962    963    965    984    987   1003   1004   1007
             1021   1023   1033   1036   1046   1396   1397   1409
             1412   1423   1424   1426   1441   1442   1446   1460
             1461   1464   1480   1481   1484   1496   1498   1508
             1509   1512   1525      0
              277    280    283    286    325    328    331    334
              369    373    376    380    408    411    414    417
              438    441    443    446    467    469    471    474
              503    506    540    543    977    980    996   1013
             1016   1027   1038   1040   1049   1065   1300   1304
             1309   1314   1319   1324   1329   1333   1336   1340
             1344   1348   1435   1437   1455   1472   1490   1502
             1516   1547   1681   1684   1686   1688   1690   1692
             1694   1695      0
              337    372    383    420    440    448    477    500
              508    545    584    999   1029   1051   1080   1301
             1302   1303   1305  -1308   1310   1312   1313   1315
             1316  -1318   1320   1322   1323   1325   1326  -1328
             1331   1332   1334   1335   1337  -1339   1341  -1343
             1345  -1347   1349   1456   1476   1492   1504   1519
             1533   1550   1563   1682   1683   1685   1687   1689
             1691   1693   1696      0
              368    375    379    407    410    413    437    442
              445    466    468    470    473    476    498    502
              505    507    535    537    539    542    544    580
              582    583    623    625    626    670    716    717
              759   1012   1015   1026   1037   1039   1048   1050
             1062   1064   1078   1079   1097   1115   1155   1311
             1321   1330   1471   1474   1489   1501   1515   1518
             1530   1532   1546   1549   1562   1575   1577   1589
             1600   1611      0
              458    461    483    486    489    492    493    494
              512    514    517    518    520    521    523   -526
              547    549    551    552    554    555    557   -566
              586    587    589   -603    628    630    631   -646
              648    649    672   -687    689    691    718   -732
              734    735    737    738    760   -771    773    775
              795   -802    804    806    807    821    822   -824
              826    828    839    840   1044   1055   1058   1059
             1066   1068   1069   1071   1072   1082   1084  -1089
             1098  -1105   1117  -1123   1125   1136   1137  -1142
             1144   1156   1157  -1161   1163   1173   1174  -1176
             1178   1186   1187   1189   1195   1510   1523   1526
             1527   1528   1538   1540   1552   1553   1555  -1559
             1566   1579   1580  -1585   1587   1601   1602  -1606
             1608   1609   1612   1613   1622  -1626   1628   1631
             1632   1638   1639   1698      0
              495    496    529   -531    533    572    574    575
              577    612    614    616    618    620    661    663
              664    666    704    706    708    710    712    751
              753    754    756    789    791   -793    820   1060
             1074   1075   1093   1094   1111   1112   1132   1133
             1151   1152   1170   1171   1185   1529   1543   1545
             1571   1574   1595   1598   1618   1620   1630      0
              464    465    497    499    501    504    532    534
              536    538    541    576    578    579    581    617
              619    621    622    624    665    667    668    669
              709    711    713   -715    755    757    758    794
             1047   1061   1063   1076   1077   1095   1096   1113
             1114   1134   1135   1153   1154   1172   1513   1514
             1531   1544   1548   1573   1576   1597   1599   1610
             1621   1646   1697      0
              567    568    605   -607    609    653    655    656
              658    694    696    698    700    702    743    745
              746    748    778    780    782    784    786    812
              814    815    817    832    834   -836    847   1090
             1107   1108   1128   1129   1147   1148   1166   1167
             1181   1182   1192   1193   1199   1560   1568   1570
             1591   1594   1614   1617   1633   1635   1642      0
              527    528    569   -571    573    608    610    611
              613    615    657    659    660    662    699    701
              703    705    707    747    749    750    752    783
              785    787    788    790    816    818    819    837
              838   1073   1091   1092   1109   1110   1130   1131
             1149   1150   1168   1169   1183   1184   1194   1541
             1542   1561   1569   1572   1593   1596   1616   1619
             1629   1636   1637      0
              604    647    650   -652    654    688    690    692
              693    695    697    733    736    739    740   -742
              744    772    774    776    777    779    781    803
              805    808    809   -811    813    825    827    829
              830    831    833    841    842   -846    848   -851
             1106   1124   1126   1127   1143   1145   1146   1162
             1164   1165   1177   1179   1180   1188   1190   1191
             1196  -1198   1200  -1205   1228  -1249   1567   1586
             1588   1592   1607   1615   1627   1634   1640   1641
             1643  -1645   1656  -1664      0
              243    296    299    343    347    393    396    425
              428    456    459    482    485    516    519    964
              983   1006   1020   1035   1043   1057   1250   1251
             1253  -1256   1259   1260   1263  -1266   1269   1270
             1273  -1276   1279   1282   1283   1286   1287   1290
             1291   1294   1295   1298   1425   1537   1665   1666
             1668  -1679      0
              303    340    346    350    354    386    389    392
              399    423    427    430    433    451    453    455
              462    479    480    481    484    487    490    510
              511    513    515    522    546    548    550    553
              556    585    588    627    629    671    986   1002
             1005   1019   1022   1032   1034   1042   1045   1053
             1054   1056   1067   1070   1081   1083   1116   1252
             1257   1258   1261   1262   1267   1268   1271   1272
             1277   1278   1280   1281   1284   1285   1288   1289
             1292   1293   1296   1297   1299   1445   1459   1462
             1463   1479   1483   1495   1497   1507   1511   1521
             1522   1524   1535   1536   1539   1551   1554   1564
             1565   1578   1590   1667   1680      0
 $END
 $FMOBND
      -853        13
      -859        16
      -860        18
      -861        21
      -863        48
      -864        52
      -865        53
      -866        56
      -867        58
      -881        61
      -882        63
      -883        66
      -884        67
      -885        70
      -886        71
      -887        74
      -889       119
      -890       123
      -891       124
      -892       127
      -893       128
      -894       131
      -895       132
      -896       135
      -918       140
      -919       143
      -920       144
      -921       147
      -922       148
      -923       151
      -924       152
      -925       155
      -926       156
      -927       159
      -929       216
      -930       219
      -931       220
      -932       223
      -933       224
      -934       227
      -935       228
      -937       232
      -958       280
      -960       286
      -963       242
      -964       246
      -965       247
      -966       248
      -967       252
      -968       253
      -969       256
      -970       257
      -971       260
      -972       262
      -973       318
      -974       320
      -975       323
      -976       324
      -979       330
      -983       293
      -996       372
      -997       373
      -999       379
     -1000       380
     -1004       345
     -1005       458
     -1006       351
     -1007       352
     -1008       353
     -1009       358
     -1010       360
     -1011       406
     -1020       390
     -1026       499
     -1027       440
     -1028       441
     -1029       445
     -1030       446
     -1034       518
     -1035       431
     -1036       432
     -1043       454
     -1047       496
     -1048       578
     -1049       500
     -1050       504
     -1051       505
     -1052       506
     -1053       512
     -1056       590
     -1057       488
     -1073       568
     -1074       570
     -1075       573
     -1076       574
     -1077       577
     -1078       667
     -1079       581
     -1080       582
     -1081       586
     -1083       675
     -1106       603
     -1107       651
     -1108       654
     -1109       655
     -1110       658
     -1111       659
     -1112       662
     -1113       663
     -1114       666
     -1115       669
     -1116       672
     -1143       686
     -1145       691
     -1147       741
     -1148       744
     -1149       745
     -1150       748
     -1151       749
     -1152       752
     -1153       753
     -1154       756
     -1155       758
     -1177       770
     -1179       775
     -1181       810
     -1182       813
     -1183       814
     -1184       817
     -1185       819
     -1196       824
     -1197       828
     -1199       846
     -1288      1253
     -1289      1256
     -1292      1263
     -1293      1266
     -1296      1273
     -1297      1276
     -1299      1282
     -1336      1303
     -1339      1311
     -1340      1313
     -1343      1321
     -1344      1323
     -1347      1330
     -1348      1332
 $END
 $DATA
 FMO calculation : msn.xyz
 C1 
 O.1-1    8
      N21 3
   
 Si.1-1  14
      N21 3
   
 H.1-1    1
      N21 3
   
 O.1-2    8
      N31 6
   
 Si.1-2  14
      N31 6
   
 H.1-2    1
      N31 6
   
 $END
     
! Using the default basis set definition in GAMESS
! for the elements with several published basis set variants.
     
 $FMOXYZ
      1      O        16.1060000000    11.5010000000    11.1670000000
      2      O        18.0920000000    12.4880000000     9.6200000000
      3      O        15.8870000000    14.2990000000     4.6190000000
      4      O        18.3930000000    15.2270000000     4.6980000000
      5      O        15.5370000000    10.0070000000    13.8450000000
      6      O        12.8850000000    10.0760000000    13.5500000000
      7      O        19.2270000000     7.5970000000    11.3230000000
      8      O        18.1140000000     9.9250000000    10.4220000000
      9      O        16.3070000000    10.7570000000     8.6180000000
     10      O        15.6500000000    12.7570000000     6.9840000000
     11      O        18.5920000000    11.3190000000     5.5350000000
     12      O        17.8880000000    12.9080000000     3.4900000000
     13      O        17.0000000000    15.1710000000     2.3760000000
     14      O        15.1660000000    16.7950000000     1.2890000000
     15      O        12.8570000000     7.8500000000    17.7630000000
     16      O        13.9350000000     8.4640000000    15.3870000000
     17      O        14.2640000000     7.8910000000    12.8120000000
     18      O        16.6120000000     8.0490000000    11.5530000000
     19      O        13.2300000000    10.8010000000    10.8560000000
     20      O        17.7080000000     7.6500000000     9.1420000000
     21      O        13.7430000000    11.5560000000     8.3950000000
     22      O        19.9850000000     8.2550000000     7.9090000000
     23      O        14.8770000000    10.2530000000     6.3980000000
     24      O        16.2740000000    10.9710000000     4.2490000000
     25      O        13.2640000000    15.0640000000     3.5130000000
     26      O        18.5930000000    10.3510000000     3.0600000000
     27      O        14.6770000000    14.1770000000     1.4650000000
     28      O        21.1950000000    10.8680000000     2.7080000000
     29      O        16.4960000000    15.0520000000    -0.2580000000
     30      O        17.9250000000    14.2950000000    -2.3810000000
     31      O        16.2640000000    16.4440000000    -3.6900000000
     32      O        16.7300000000    14.9030000000    -5.8190000000
     33      O        10.4880000000     4.9070000000    19.2410000000
     34      O         8.8640000000     6.1360000000    17.5090000000
     35      O        13.0770000000     4.0880000000    17.9930000000
     36      O        13.4810000000     5.9000000000    16.0540000000
     37      O        11.4320000000     7.4910000000    15.5310000000
     38      O        17.7400000000     5.2460000000    12.6850000000
     39      O        10.1810000000     8.8450000000    13.6160000000
     40      O        15.3260000000     5.7320000000    11.5990000000
     41      O        14.3630000000     7.7450000000    10.1470000000
     42      O        20.7790000000     5.4880000000     9.6620000000
     43      O        12.5960000000     9.1770000000     8.8110000000
     44      O        18.9720000000     5.7950000000     7.7390000000
     45      O        11.1930000000    11.4300000000     9.2280000000
     46      O        17.7360000000     7.8390000000     6.4860000000
     47      O        15.7720000000     8.3900000000     4.7190000000
     48      O        13.8100000000    10.0800000000     3.9340000000
     49      O        20.6670000000     7.3240000000     3.9780000000
     50      O        13.1600000000    12.4730000000     2.8830000000
     51      O        20.1090000000     8.6270000000     1.7320000000
     52      O        12.0180000000    14.3220000000     1.2620000000
     53      O        19.4490000000    10.9560000000     0.6180000000
     54      O         9.9620000000    14.8430000000    -0.3880000000
     55      O        17.5700000000    12.6240000000    -0.2950000000
     56      O        15.5260000000    13.1960000000    -1.9210000000
     57      O        14.6880000000    14.3510000000    -4.1930000000
     58      O        14.5900000000    16.4940000000    -5.8130000000
     59      O        12.6750000000    18.0270000000    -6.9360000000
     60      O         5.5370000000     4.0340000000    20.6240000000
     61      O         7.8590000000     4.4260000000    19.3110000000
     62      O         9.3250000000     3.5040000000    17.2780000000
     63      O        11.4700000000     4.1360000000    15.8590000000
     64      O         6.6240000000     6.8260000000    15.4670000000
     65      O        13.9530000000     3.3200000000    15.5640000000
     66      O         9.1420000000     6.5760000000    14.6340000000
     67      O        15.5620000000     3.9640000000    13.5620000000
     68      O        11.2670000000     6.4910000000    13.0030000000
     69      O        16.5420000000     3.4060000000    11.1530000000
     70      O        11.7420000000     7.2790000000    10.4630000000
     71      O        18.6460000000     3.8900000000     9.6190000000
     72      O        13.0070000000     6.5700000000     8.1780000000
     73      O        20.5320000000     3.6270000000     7.7510000000
     74      O        15.3160000000     6.7750000000     6.7740000000
     75      O        22.0670000000     2.9630000000     5.7090000000
     76      O        16.9630000000     5.9800000000     4.7800000000
     77      O        12.0030000000    10.2620000000     1.9410000000
     78      O        18.4370000000     6.7770000000     2.6550000000
     79      O        14.6210000000    10.7240000000     1.4970000000
     80      O        20.8540000000     6.0670000000     1.6150000000
     81      O        10.2590000000    12.4050000000     0.6900000000
     82      O        16.9710000000    10.0770000000     0.3630000000
     83      O        23.4330000000     6.6290000000     1.0990000000
     84      O        11.9160000000    13.2750000000    -1.2230000000
     85      O        18.3880000000    10.6150000000    -1.8390000000
     86      O        13.3820000000    12.2270000000    -3.2150000000
     87      O        19.4950000000     9.7400000000    -4.1120000000
     88      O        10.3390000000    15.7550000000    -3.2430000000
     89      O        15.8180000000    11.9350000000    -4.2540000000
     90      O        12.0560000000    16.0250000000    -5.2680000000
     91      O        16.7750000000    12.1490000000    -6.7300000000
     92      O        13.0070000000    15.5340000000    -7.7580000000
     93      O        15.3450000000    14.3780000000    -8.3740000000
     94      O        12.1240000000    17.8720000000   -10.2830000000
     95      O        13.3590000000    16.6720000000   -12.3520000000
     96      O         8.7410000000     1.2820000000    20.5830000000
     97      O         6.6150000000     2.0730000000    19.1940000000
     98      O         5.5830000000     4.1890000000    17.9390000000
     99      O        11.5820000000    -0.8880000000    17.2520000000
    100      O         4.2800000000     4.8340000000    15.6890000000
    101      O        10.9410000000     1.5660000000    16.3440000000
    102      O         9.4120000000     2.9300000000    14.6420000000
    103      O        14.1880000000    -0.4340000000    15.7330000000
    104      O         7.3660000000     4.6150000000    14.2580000000
    105      O        14.7730000000     1.4290000000    13.8930000000
    106      O         7.2230000000     6.8510000000    12.8050000000
    107      O        13.0100000000     3.2360000000    13.0570000000
    108      O        19.3180000000     0.5410000000    11.0010000000
    109      O        11.9570000000     4.7180000000    11.1180000000
    110      O        17.3630000000     1.5200000000     9.4790000000
    111      O         9.5390000000     5.8840000000    11.0480000000
    112      O        16.2040000000     3.7770000000     8.5320000000
    113      O        21.3630000000     0.0740000000     8.7970000000
    114      O        14.0880000000     4.4370000000     6.9600000000
    115      O        20.2430000000     1.2160000000     6.6450000000
    116      O        13.0010000000     6.4080000000     5.5100000000
    117      O        19.4650000000     3.3620000000     5.2760000000
    118      O        18.1100000000     4.1980000000     3.0940000000
    119      O        16.0260000000     5.7190000000     2.3330000000
    120      O        23.0040000000     3.0330000000     2.0270000000
    121      O        15.3800000000     8.1510000000     1.3450000000
    122      O        22.3440000000     4.5160000000    -0.0530000000
    123      O        14.6480000000     9.4720000000    -0.8360000000
    124      O        21.4970000000     6.8410000000    -0.8410000000
    125      O        12.3220000000    10.6560000000    -1.3150000000
    126      O        19.5260000000     8.2230000000    -1.9090000000
    127      O        10.7540000000    11.7830000000    -3.1350000000
    128      O        17.2360000000     8.6270000000    -3.2370000000
    129      O        10.7380000000    13.7220000000    -4.9590000000
    130      O        16.6790000000     9.7600000000    -5.5500000000
    131      O         9.4260000000    15.9020000000    -5.7590000000
    132      O        14.4110000000    10.9120000000    -6.2750000000
    133      O         7.8130000000    16.5630000000    -7.8320000000
    134      O        13.2500000000    12.8780000000    -7.6120000000
    135      O        13.2640000000    14.0510000000    -9.9920000000
    136      O        11.3210000000    15.4840000000   -11.1120000000
    137      O        10.8560000000    17.6050000000   -12.6540000000
    138      O         9.3260000000    18.6270000000   -14.6150000000
    139      O         3.7840000000     0.9850000000    22.3170000000
    140      O         6.2570000000     0.5810000000    21.3700000000
    141      O         2.8630000000     2.8410000000    20.1730000000
    142      O         7.3270000000    -0.4970000000    19.1680000000
    143      O         3.1310000000     3.2310000000    17.5350000000
    144      O         9.0450000000    -0.0300000000    17.2100000000
    145      O         5.1470000000     2.3440000000    16.0410000000
    146      O        10.3150000000    -0.6090000000    14.9140000000
    147      O         6.9410000000     1.9940000000    14.1170000000
    148      O        12.5910000000    -0.1050000000    13.6300000000
    149      O         8.3690000000     3.1990000000    12.2210000000
    150      O        15.0050000000    -1.1240000000    13.2410000000
    151      O        10.8380000000     2.3730000000    11.7490000000
    152      O        16.7840000000    -0.2500000000    11.4500000000
    153      O        13.1460000000     2.4420000000    10.4430000000
    154      O        18.0610000000    -1.0830000000     9.3170000000
    155      O        14.2880000000     2.0300000000     8.0380000000
    156      O        19.7010000000    -1.3260000000     7.2390000000
    157      O        15.9950000000     2.7420000000     6.0980000000
    158      O        22.0930000000    -0.6760000000     6.3120000000
    159      O        17.5490000000     1.8540000000     4.1450000000
    160      O        23.4290000000    -0.0160000000     4.0910000000
    161      O        19.8580000000     2.1870000000     2.8910000000
    162      O        14.1440000000     5.9370000000     0.4320000000
    163      O        20.9370000000     2.3580000000     0.4560000000
    164      O        16.7400000000     6.3960000000    -0.1040000000
    165      O        23.4590000000     2.0980000000    -0.4360000000
    166      O        12.3690000000     8.2240000000    -0.2350000000
    167      O        19.0940000000     5.6940000000    -1.1400000000
    168      O        25.0620000000     0.4140000000    -1.7440000000
    169      O        13.0810000000     8.5690000000    -2.7990000000
    170      O        20.5680000000     6.1460000000    -3.2780000000
    171      O         8.4330000000    12.6930000000    -4.1070000000
    172      O        14.9550000000     7.9760000000    -4.5950000000
    173      O        21.5230000000     5.1260000000    -5.5180000000
    174      O        10.0070000000    11.2210000000    -5.6530000000
    175      O        17.3530000000     7.2000000000    -5.4860000000
    176      O         7.3360000000    14.3450000000    -6.3920000000
    177      O        11.9810000000    10.5370000000    -7.3720000000
    178      O        19.8940000000     7.6120000000    -6.2350000000
    179      O         9.4480000000    14.4660000000    -7.9880000000
    180      O        14.1370000000    10.7010000000    -8.9180000000
    181      O        10.7770000000    13.1600000000    -9.9040000000
    182      O        16.2960000000    12.0690000000    -9.7210000000
    183      O         7.5410000000    17.0170000000   -11.1130000000
    184      O        12.0250000000    13.1870000000   -12.2480000000
    185      O         8.6410000000    16.3340000000   -13.4700000000
    186      O        14.3450000000    13.8260000000   -13.3860000000