 $CONTRL runtyp=energy
         local=ruednbrg maxit=100 $END
 $SYSTEM mwords=11000 mem10=500000000 timlim=100000000 $END
! $GDDI ngroup=1 $END
 $SCF dirscf=.true. npunch=0 $END
 $LOCAL CVGLOC=1.0E-6 FCORE=.TRUE. $END
 $FMOPRP
!    NGRFMO(1)= 1, 1, 0, 0, 0,   0, 0, 0, 0, 0
    nprint=0
 $END
 $FMO
     nbody=2
     iefmo=1
     resdim=0.5
! uncomment the line below for post-HF runs
!     rcorsd=0.5
     modefm(1)=0, 0, 0, 1, 1
     RAFO(1)=.1, 1, 1
     MAXCAO=9
     MAXBND=124
     NLAYER=1
     NFRAG=22
     ICHARG(1)=
          0, 0, 0, 0, 0, 0, 0, 0, 0, 0, 
          0, 0, 0, 0, 0, 0, 0, 0, 0, 0, 
          0, 0
     FRGNAM(1)=
            Msn1, FnGrp1,   Msn2,   Msn3,   Msn4, 
            Msn5,   Msn6,   Msn7,   Msn8,   Msn9, 
           Msn10,  Msn11,  Msn12, FnGrp2,  Msn13, 
           Msn14,  Msn15, FnGrp3,  Msn16, FnGrp4, 
           Msn17,  Msn18
      INDAT(1)=0
                33    34    50    51    52    71
                73    75    96    98    99   115
               117   119   138   140   142   166
               169   172   205   208   534   541
               553   561   570   578   593   806
               807   810   811   815   820   821
               825   826   830   831   835   839
               842   843   846   847   850   851
               854   869   937  1061  1062  1064
              1065  1066  1067  1068  1069  1070
              1071  1072  1073  1074  1121  1122
              1123  1124  1125  1126  1127     0
               816  1104  1109  1110  1111  1112
              1105  1106  1107  1108  1119  1120
                 0
                53    76   100   120   144   174
               210   249   542   562   580   608
               808   809   812   813   814   817
               818   819   822   823   824   827
               828   829   832   833   834   836
               837   838   840   841   844   845
               848   849   852   853   855   876
               884   893   900   911   924   940
               953  1063  1075     0
                70    72    74    94    95    97
               114   116   118   136   137   139
               141   143   164   168   171   173
               200   202   204   207   209   245
               247   248   288   290   291   335
               381   382   424   551   552   560
               568   569   577   579   590   592
               606   607   625   643   683   882
               883   892   899   909   910   921
               923   936   939   952   965   967
               979   990  1001     0
               134   135   163   165   167   170
               197   199   201   203   206   241
               243   244   246   282   284   286
               287   289   330   332   333   334
               374   376   378   379   380   420
               422   423   459   576   589   591
               604   605   623   624   641   642
               662   663   681   682   700   907
               908   922   934   938   963   966
               987   989  1000  1011  1036  1076
                 0
               161   162   194   195   196   198
               237   239   240   242   277   279
               281   283   285   326   328   329
               331   369   371   373   375   377
               416   418   419   421   454   456
               457   458   485   588   602   603
               621   622   639   640   660   661
               679   680   698   699   713   920
               933   935   961   964   985   988
              1008  1010  1020     0
               192   193   234   235   236   238
               273   275   276   278   280   322
               324   325   327   364   366   368
               370   372   412   414   415   417
               448   450   452   453   455   481
               483   484   502   503   601   619
               620   637   638   658   659   677
               678   696   697   711   712   722
               931   932   951   959   962   983
               986  1006  1009  1019  1026  1027
                 0
               232   233   270   271   272   274
               318   320   321   323   359   361
               363   365   367   408   410   411
               413   443   445   447   449   451
               477   479   480   482   497   499
               500   501   512   618   635   636
               656   657   675   676   694   695
               709   710   720   721   727   950
               958   960   981   984  1004  1007
              1023  1025  1032     0
               317   319   360   362   405   407
               409   444   446   474   476   478
               496   498   509   510   511   515
               516   655   674   693   708   719
               726   729   734   735   736   737
               738   739   740   741   742   743
               744   745   746   747   748   749
               750   751   752   753   754   755
               978   982  1005  1024  1034  1035
              1037  1038  1039  1040  1041  1042
              1043  1044  1045     0
               268   269   312   315   316   351
               353   355   356   357   358   398
               401   404   406   435   437   439
               440   441   442   468   470   473
               475   489   490   492   493   494
               495   506   507   508   513   514
               634   652   654   671   673   690
               692   705   707   716   718   724
               725   728   730   731   732   733
               957   976   997  1017  1030  1031
              1033     0
               230   231   262   264   266   267
               305   308   310   313   314   347
               349   352   354   393   396   399
               402   403   431   433   436   438
               464   466   469   471   472   487
               488   491   504   505   617   631
               633   650   653   669   672   688
               691   703   706   715   717   723
               948   949   956   973   977   995
               999  1015  1018  1022  1028  1029
                 0
               190   191   224   226   228   229
               258   260   263   265   300   303
               306   309   311   343   345   348
               350   389   391   394   397   400
               428   429   432   434   462   463
               465   467   486   600   614   616
               629   632   648   651   667   670
               686   689   702   704   714   930
               946   947   971   975   994   998
              1014  1016  1021     0
               159   160   182   185   188   189
               216   219   222   225   254   256
               259   261   296   298   301   304
               307   339   341   344   346   385
               387   390   392   395   426   427
               430   460   461   587   596   599
               612   615   627   630   646   649
               665   668   685   687   701   918
               919   928   943   970   974   992
               996  1003  1012  1013     0
               227  1095  1100  1101  1102  1103
              1096  1097  1098  1099  1118  1117
                 0
               128   131   145   147   149   152
               155   158   175   177   179   183
               186   211   212   213   214   217
               220   223   250   251   252   255
               257   292   293   294   295   297
               299   302   336   337   338   340
               342   383   384   386   388   425
               573   581   583   586   594   597
               609   610   613   626   628   644
               645   647   664   666   684   904
               912   914   917   925   941   942
               945   954   968   969   972   980
               991   993  1002     0
                46    54    60    64    67    77
                80    83    90   101   105   108
               111   121   123   125   132   146
               150   153   156   176   178   180
               187   215   218   221   253   538
               543   546   554   557   563   565
               571   574   582   584   595   598
               611   764   767   774   777   784
               786   791   873   877   880   881
               885   889   894   896   901   905
               913   915   926   929   944   955
                 0
                43    57    87   103   129   148
               184   756   757   758   759   760
               761   762   763   765   766   768
               769   770   771   772   773   776
               778   779   780   781   782   783
               785   787   788   789   790   792
               793   794   795   796   797   798
               799   800   801   802   803   804
               805  1046  1047  1048  1049  1050
              1051  1052  1053  1054  1055  1056
              1057  1058  1059  1060     0
               775  1086  1091  1092  1093  1094
              1087  1088  1089  1090  1116  1115
                 0
                19    22    26    29    31    35
                37    40    47    55    61    65
                78    81    84    91   102   106
               109   112   122   124   126   133
               151   154   157   181   526   528
               530   535   539   544   547   555
               558   564   566   572   575   585
               863   865   867   868   870   874
               878   886   890   895   897   902
               906   916   927     0
                68  1077  1082  1083  1084  1085
              1078  1079  1080  1081  1114  1113
                 0
                 6     8    10    12    13    15
                17    23    24    27    30    36
                38    41    44    56    58    62
                66    79    82    85    88   104
               107   110   127   130   520   521
               524   529   531   536   545   548
               556   567   859   860   861   866
               871   879   887   903     0
                 1     2     3     4     5     7
                 9    11    14    16    18    20
                21    25    28    32    39    42
                45    48    49    59    63    69
                86    89    92    93   113   517
               518   519   522   523   525   527
               532   533   537   540   549   550
               559   856   857   858   862   864
               872   875   888   891   898  1128
              1129  1130  1131  1132  1133  1134
              1135  1136  1137  1138  1139  1140
              1141     0
 $END
 $FMOBND
        -519      10
        -520       7
        -526      17
        -527      30
        -528      24
        -529      25
        -530      43
        -535      57
        -539      44
        -540      66
        -542      74
        -544      58
        -545      59
        -546     128
        -547      87
        -551     817
        -554     147
        -555     103
        -558      88
        -559     110
        -560     165
        -562     118
        -564     104
        -565     183
        -566     129
        -568     827
        -571     213
        -572     148
        -575     130
        -576     162
        -577     243
        -579     170
        -580     171
        -583     182
        -584     255
        -585     184
        -586     188
        -587     190
        -590     836
        -595     294
        -601     233
        -602     235
        -603     238
        -604     239
        -605     242
        -606     332
        -607     246
        -608     247
        -610     254
        -611     340
        -612     258
        -613     259
        -614     262
        -615     263
        -616     266
        -617     268
        -635     316
        -636     319
        -637     320
        -638     323
        -639     324
        -640     327
        -641     328
        -642     331
        -643     334
        -645     339
        -646     343
        -647     344
        -648     347
        -649     348
        -650     351
        -651     352
        -653     356
        -674     358
        -675     406
        -676     409
        -677     410
        -678     413
        -679     414
        -680     417
        -681     418
        -682     421
        -683     423
        -684     426
        -685     428
        -686     431
        -687     432
        -688     435
        -689     436
        -691     440
        -708     442
        -709     475
        -710     478
        -711     479
        -712     482
        -713     484
        -714     487
        -715     489
        -717     493
        -726     495
        -727     511
        -749     355
        -751     439
        -753     492
        -755     514
        -794     764
        -795     767
        -798     774
        -799     777
        -802     784
        -803     786
        -805     791
        -842     809
        -843     812
        -846     819
        -847     822
        -850     829
        -851     832
        -854     838
        -816     847
        -227     615
        -800     775
         -68     539
 $END
 $DATA
 EFMO 22 fragment MSN single pore model
 C1
 O.1-1    8
      N31 6

 C.1-1    6
      N31 6

 Si.1-1  14
      N31 6

 N.1-1    7
      N31 6

 H.1-1    1
      N31 6

 $END
 $FMOXYZ
O   8  -14.766530  -16.855720    2.334060
O   8  -12.924700  -17.995620    6.722580
O   8  -13.748360  -16.403340    4.736270
O   8  -13.083910  -14.820250    2.659700
O   8  -13.808100  -13.006320    0.845250
O   8  -12.383750  -18.531300    1.637040
O   8  -11.987780  -18.337510    4.253510
O   8  -11.867990  -17.430950   -1.220420
O   8  -11.293540  -16.187040    5.657120
O   8  -12.455440  -15.203330    0.103730
O   8  -11.232790  -13.316300    1.476080
O   8  -10.487040  -20.013840    2.860500
O   8  -10.156590  -17.376090    2.554520
O   8  -10.827400  -18.132490    8.978530
O   8   -9.998680  -16.221300    0.192840
O   8   -9.617120  -16.181580    7.687570
O   8  -10.779860  -15.071360   -1.997700
O   8   -9.914230  -14.011700    6.201040
O   8   -9.712270  -13.510060   -3.866350
O   8  -10.050490  -12.969810    3.810150
O   8   -8.983650  -11.984940    1.505280
O   8   -7.019820  -20.215400   -0.306140
O   8   -8.258450  -19.614810    4.875850
O   8   -8.373990  -18.200720    0.772260
O   8   -8.834070  -18.678580    7.298870
O   8   -8.016000  -17.291340   -2.128020
O   8   -8.085340  -15.782890    1.884810
O   8   -8.323580  -17.382290    9.619050
O   8   -8.139190  -14.628870   -2.029920
O   8   -8.319560  -14.932260    4.340370
O   8   -9.816690  -12.678320   -1.306950
O   8   -7.930480  -12.525770    5.406170
O   8   -9.190120   15.098840   -5.498450
O   8   -8.079500   16.885430   -3.926790
O   8   -6.743470  -19.683190    2.319620
O   8   -6.614470  -20.104810    6.956030
O   8   -5.753240  -18.011820    0.514990
O   8   -6.787150  -17.650950    5.925130
O   8   -5.737990  -17.321290   14.051200
O   8   -6.027670  -15.900210   -1.041700
O   8   -6.257370  -16.479180    3.631870
O   8   -6.997470  -16.691540   11.839190
O   8   -6.421070  -15.902670   -3.680560
O   8   -6.435660  -13.918620    2.848430
O   8   -7.104340  -15.010160    9.764900
O   8   -4.874960  -13.986550   -8.538990
O   8   -5.953830  -13.123650    0.334680
O   8   -6.781990  -13.779570    7.462640
O   8   -5.322810  -12.228410    5.826730
O   8   -6.138670   12.543630   -2.521660
O   8   -7.049320   14.407900   -4.120200
O   8   -6.823190   16.144360   -6.150700
O   8   -4.467310   18.672330  -10.267100
O   8   -0.297930  -19.790390   -7.973660
O   8   -3.781700  -19.199120    2.234340
O   8   -5.407830  -18.482340    9.114790
O   8   -4.220190  -17.748480   -1.631360
O   8   -4.628940  -18.367920    4.571370
O   8   -4.844080  -18.243010   11.700140
O   8   -1.181870  -16.503880  -11.317650
O   8   -3.834770  -16.291540    0.530180
O   8   -4.718070  -15.990920    5.720540
O   8   -4.574450  -15.653790   12.357760
O   8   -2.695970  -14.919700   -9.766730
O   8   -3.962690  -14.087740    1.936450
O   8   -4.998320  -15.562530    8.273830
O   8   -2.637010  -14.401410   -7.140550
C   6   -4.964340  -11.556240    2.481440
O   8   -5.182340  -13.209200    9.502610
O   8   -1.113780   12.507040   -8.488410
O   8   -4.546530   13.519630   -4.400680
O   8   -2.088370   14.862590  -12.750570
O   8   -5.253290   15.042380   -2.306270
O   8   -2.686350   16.960050  -11.217170
O   8   -4.601230   16.946510   -0.649910
O   8   -1.863590   19.385880  -10.407320
O   8    1.058300  -18.966000   -5.833380
O   8   -2.547520  -20.030670    4.437030
O   8   -4.045540  -20.410700   10.361170
O   8   -0.225180  -17.213260   -7.329510
O   8   -2.279670  -17.477980    3.624810
O   8   -2.892510  -18.034080    9.887000
O   8   -0.136120  -15.335390   -9.168910
O   8   -1.744930  -15.530240    1.925890
O   8   -2.996090  -17.069430    7.438540
O   8   -2.365420  -15.945270   13.800810
O   8   -2.485170  -14.121800   -0.227240
O   8   -2.980620  -14.434300    6.953700
O   8   -2.791910  -13.654700   12.486580
O   8   -0.068080  -13.062210   -6.617490
O   8   -2.834900  -13.493900    4.515790
O   8   -2.577030  -13.051370    9.936490
O   8   -3.687520  -11.517290    7.999950
O   8    1.368860   11.987580   -7.561060
O   8    0.897310   14.229680   -8.919150
O   8   -2.711320   13.382270    0.994370
O   8   -0.552870   15.489860  -10.718000
O   8   -2.904650   14.892710   -1.160850
O   8   -3.399680   16.808700   -2.980910
O   8    0.136690   20.101980   -4.958340
O   8    1.632090  -20.016000   -3.229870
O   8   -0.058760  -19.281690    5.729850
O   8   -0.486890  -17.888340    1.708380
O   8   -0.947910  -18.622020    8.149760
O   8    1.878360  -15.567660   -7.479850
O   8    0.082170  -16.244110    3.682270
O   8   -1.226880  -16.135750    9.103230
O   8    1.462050  -14.638260   -5.079890
O   8   -0.734440  -14.746030    5.648880
O   8   -0.699930  -14.525450   11.100940
O   8    0.471840  -12.377280   -4.076690
O   8   -1.403930  -12.306200    6.473240
O   8   -0.940320  -11.904190   11.702220
O   8    1.601430   12.637310   -4.529420
O   8   -0.573460   13.860340   -0.488010
O   8    0.802440   16.882870   -8.851990
O   8   -1.658110   15.856230    0.929580
O   8    1.195770   18.372380   -6.652750
O   8   -1.569130   17.649060    2.852500
O   8    2.803880   19.979600   -5.171140
O   8    3.321180  -19.524270   -1.244580
O   8    1.307980  -20.021330    7.911460
O   8    3.750680  -18.438290   -3.667950
O   8    1.226130  -17.445830    7.164100
O   8    3.274860  -16.548660   -5.443270
O   8    1.800100  -15.451400    5.539760
O   8    1.098420  -16.416230   10.373270
O   8   -0.766330  -13.883850  -11.281940
O   8    0.824910  -13.675590    3.797670
O   8    0.600630  -14.291320    8.810450
O   8    0.227750  -11.770670  -12.549850
O   8    2.762670  -11.522540   -2.391000
O   8    1.450750  -12.376250    7.213600
O   8    0.405810   13.063920  -12.559640
O   8    1.654650   14.279150  -14.607230
O   8    4.209530   12.280730   -4.693090
O   8    3.056550   14.546670   -5.599270
O   8    0.278360   13.372320    4.667080
O   8    2.914620   16.458140   -7.398290
O   8   -0.290070   15.312690    3.064770
O   8   -0.639680   17.090610  -12.896100
O   8    0.587040   17.198860    1.397990
O   8    0.253540   19.342390  -13.998770
O   8    3.833740   20.618290   -2.124270
O   8    2.316620  -19.882450   -9.817630
O   8    6.233750  -19.038560   -0.900900
O   8    1.529430  -17.438180   -9.286660
O   8    3.142890  -17.713170    5.339880
O   8    0.917980  -15.676500  -13.429370
O   8    4.617200  -15.984950   -3.207770
O   8    3.475450  -16.129780    7.493060
O   8    1.812370  -13.796780  -11.790040
O   8    4.539520  -13.436090   -2.596350
O   8    3.173040  -13.780180    8.712840
O   8    0.728790  -12.196440   -9.937960
O   8    4.219980  -12.211990   -0.240000
O   8    1.501330  -12.022510    9.891160
O   8    1.077520  -10.651480   -7.821110
O   8    3.258400  -10.078380  -14.508920
O   8    1.185370   -9.062940  -13.179860
O   8    2.754230    9.314710  -14.960580
O   8    2.179060   11.746000  -14.015640
O   8    3.007240   13.699990  -12.373260
O   8    4.979260   13.117180   -0.397390
O   8    2.105320   15.627260  -10.799680
O   8    2.203970   14.418990    3.182860
O   8    3.487360   16.406380  -15.457970
O   8    4.234230   16.904050   -5.142000
O   8    1.176160   15.812050    5.203400
O   8    1.867360   17.289300  -13.582660
O   8    4.990790   18.699870   -3.455240
O   8    1.516470   17.734870    6.893450
O   8    0.926840   18.711300  -11.464420
O   8    6.512210   20.295360   -1.972850
O   8    3.325040  -18.621310   -7.690750
O   8    6.756160  -18.881080    1.734760
O   8    4.003290  -17.797760  -10.169260
O   8    7.197780  -16.783070    0.153890
O   8    3.070810  -16.137570  -11.968940
O   8    6.481960  -14.968400   -1.641760
O   8    5.279560  -15.307480    9.245710
O   8    3.202560  -14.373310  -13.976290
O   8    3.680220  -14.035860   -6.345960
O   8    5.066500  -14.099340    6.870140
O   8    4.817000  -13.101010  -15.664030
O   8    2.839770  -12.550740   -8.398940
O   8    7.956400  -11.293080    0.913350
O   8    2.613050  -10.389280  -10.020700
O   8    3.598720   -9.025590  -12.071280
O   8    3.060540   -7.433280  -14.187940
O   8    3.584260   -5.011400  -15.243500
O   8    4.113050    6.655300  -15.571000
O   8    6.104710    7.332010  -17.205280
O   8    4.863300    8.842890  -10.731660
O   8    4.000390   10.243170  -12.815360
O   8    4.512440   11.293870  -15.213680
O   8    3.745850   11.266520   -9.332140
O   8    4.178380   13.723150  -16.228600
O   8    3.808150   13.860720   -9.853790
O   8    7.498380   12.823470    0.418950
O   8    4.665360   15.645930  -11.601730
O   8    6.954200   14.450710   -1.616630
O   8    4.444460   17.664510  -13.306640
O   8    6.012580   16.242910   -3.302640
O   8    3.404030   15.806130    6.639510
O   8    3.076110   19.060060  -15.176740
O   8    2.722870   18.706180   -8.798760
O   8    3.036070   17.664130    4.734990
O   8    3.848690   21.067740   -9.229660
O   8    7.044480   21.274320    0.831740
O   8    5.484560  -19.892040   -6.036880
O   8    5.687960  -16.755870  -11.937270
O   8    5.753090  -17.451550   -5.108810
O   8    4.638370  -15.213050  -10.024450
O   8    8.636610  -14.648160   -0.186090
O   8    5.501750  -15.510240  -14.663460
O   8    5.330690  -13.372180   -8.243050
O   8    9.269920  -13.356900    1.973750
O   8    5.489140  -13.356640  -13.085420
O   8    4.453920  -11.521440   -6.513640
O   8    8.269730  -11.454620    3.550700
O   8    4.543690  -11.431530  -11.544460
O   8    5.159120  -10.939750   -3.982850
O   8    4.674840   -9.639120  -17.120430
O   8    5.041290   -9.438220   -9.845660
O   8    4.805750   -7.173560  -16.185260
C   6    4.257020   -7.020690   -8.576040
O   8    5.394150   -6.283880  -13.757150
O   8    5.718310   -3.902950  -12.663300
O   8    5.670750   -3.295930  -17.348370
O   8    5.688840   -0.679920  -16.752960
O   8    5.825860    2.196040  -17.417750
O   8    5.674490    4.750690  -16.628650
O   8    6.640400    6.382830  -14.755250
O   8    5.724410    8.271390  -13.204990
O   8    7.785260   10.579720  -18.346360
O   8    6.525270   10.482640  -12.009940
O   8    6.358400   12.249140  -16.817550
O   8    5.941950   12.433240  -10.403310
O   8    6.080980   13.297150  -14.400360
O   8    5.313560   12.863920   -7.878130
O   8    6.249230   15.825000  -13.731150
O   8    5.222520   15.275930   -6.921230
O   8    6.515080   17.524010  -11.669140
O   8    7.658290   16.999240   -1.377150
O   8    5.106980   18.805250   -9.877340
O   8    8.141890   18.981680    0.217880
O   8    4.778510   19.464030   -7.275460
O   8    9.556040   20.752660    1.613840
O   8    7.784140  -19.165080   -4.832510
O   8    7.115980  -18.209850   -7.269310
O   8    6.379490  -15.837790   -8.161460
O   8   10.180260  -15.864830    1.588460
O   8    7.063840  -14.146760  -10.079690
O   8    6.425930  -14.360210   -4.251230
O   8    7.149720  -11.972310  -11.546040
O   8    6.840940  -12.131750   -5.633570
O   8    6.031120  -10.839580  -13.668220
O   8    6.210240   -9.590390   -6.029440
O   8    6.590230   -8.970530  -15.416390
O   8    6.763400   -8.198320   -8.183540
O   8    6.686840   -8.007220  -17.886830
O   8    6.249570   -7.174450  -10.537600
O   8    6.958080   -5.521890  -18.778960
O   8    7.566110   -5.814450  -12.321450
O   8    7.285300   -4.691460  -14.690730
O   8    7.536470   -2.320640  -15.741510
O   8    7.625890   -1.682990  -18.303730
O   8    7.942550    0.813790  -19.151040
O   8    7.880950    0.611490  -15.418720
O   8    7.689040    3.195940  -15.826600
O   8    7.559010    3.957700  -18.366540
O   8    8.243570    4.818450  -10.404630
O   8    6.708710    6.000490  -19.788740
O   8    7.486470    6.574690  -12.238130
O   8    8.268830    8.368080  -14.027890
O   8    7.189660    7.824440   -8.947040
O   8    7.853010   10.370560  -15.704440
O   8    7.382840   10.414870   -9.537280
O   8    9.033420   12.462060  -16.862670
O   8    8.487240   12.131320  -11.242720
O   8    7.166300   11.230900   -4.371340
O   8    8.106840   14.124600  -12.897980
O   8    6.796280   13.476100   -5.737830
O   8    7.982430   14.844010  -15.479290
O   8    7.373590   14.501370   -8.157290
O   8    6.819550   16.916450   -9.140630
O   8    8.874260   16.501060    0.937900
O   8    7.734940   19.290380  -10.062810
O   8    6.728180   17.920710   -5.265790
O   8    6.922860   20.526670   -5.492060
O   8    9.077770  -19.164850   -1.666610
O   8    7.744680  -17.496550   -9.748660
O   8    8.639010  -16.575420   -2.034040
O   8    8.934710  -16.296750   -7.650710
O   8    9.367310  -13.388580  -11.122740
O   8    8.251950  -14.234630   -6.169720
O   8    8.222320  -11.959730   -9.124720
O   8    8.622210  -12.905160   -3.859460
O   8    7.327120  -11.481810  -15.898760
O   8    8.486120  -10.023500   -7.334510
O   8    7.291530  -11.621180   -1.950900
O   8    8.549240  -10.034600  -13.977240
O   8    8.110070   -7.768000   -5.966390
O   8    8.719820   -7.393660  -19.523740
O   8    8.102500   -8.394050  -11.979610
O   8    9.505730   -5.632410   -5.255950
O   8    8.721850   -6.506660  -17.014930
O   8    8.823340   -6.641490  -10.131570
O   8    9.449520   -4.141570  -16.109430
O   8    8.594910   -4.975420   -8.072240
O   8   10.107180   -3.269610  -21.737710
O   8    9.058610   -3.030150  -13.688240
O   8    8.430550   -0.597580  -12.795010
O   8    9.901500   -0.361770  -17.753410
O   8    9.902710    1.937390  -16.566410
O   8    9.442120    2.378160  -21.176510
O   8    9.395930    2.261890  -13.981020
O   8    9.072490    4.881940  -20.363290
O   8    9.072250    4.603470  -12.910410
O   8    8.720080    6.313860  -18.114610
O   8   10.024080    6.572170  -11.397920
O   8    9.155200    8.281120  -16.529010
O   8    9.379280    8.765160  -10.126410
O   8   10.302210    9.937190  -14.784450
O   8    8.898960    9.449930   -7.628700
O   8    9.867110   12.198750  -13.498520
O   8    8.652070   11.794210   -6.498440
O   8   10.347250   13.983130  -11.528350
O   8    9.018210   13.152220   -4.248020
O   8    8.953060   15.561980   -9.969600
O   8    8.568610   15.589850   -3.421140
O   8    8.878060   16.574670   -7.523430
O   8    8.850550   18.980970   -6.493150
O   8    8.565350   19.205200   -3.813090
O   8   10.904890  -17.381720   -0.857130
O   8   10.494710  -17.842530   -3.476880
O   8    9.941340  -16.009010   -5.230890
O   8   10.706000  -14.368910   -7.197500
O   8   11.105790  -13.795110    0.089460
O   8   10.372560  -11.775000   -7.619420
O   8    9.833930  -12.296790   -1.596570
O   8    9.981380  -10.003300   -9.568420
O   8    9.212090  -10.357800   -3.301540
O   8   10.429700   -9.699430  -12.166300
O   8   10.037780   -8.021630   -4.175030
O   8    9.843710   -7.723450  -13.857020
O   8   10.635520   -7.543750   -6.724210
O   8   11.016790   -6.250300  -15.668380
O   8   10.984610   -5.997310   -8.821470
O   8   10.768900   -5.300970  -18.127540
O   8    9.765120   -4.165160  -10.322500
O   8   11.083420   -2.978920  -19.293290
O   8   10.404800   -1.950420  -11.664440
O   8   11.866520   -1.341700  -21.209620
O   8   10.621230   -1.020300  -14.203230
O   8   11.887700    0.256360  -16.066560
O   8   11.748560    1.415080  -18.454630
O   8   10.270750    1.077450  -10.089120
O   8   11.353490    3.635530  -19.804410
O   8   10.847760    2.987370  -11.865160
O   8   10.815920    4.366290  -22.322420
O   8   11.274680    4.098450  -14.280410
O   8    8.990510    5.440770   -7.815410
O   8   10.181050    5.925530  -15.891050
O   8   10.862010    6.936720   -8.915590
O   8   11.188150    7.290380  -17.977960
O   8   11.919750    8.392650  -10.805480
O   8    8.895060    8.608990   -4.424010
O   8   11.527690   10.358130  -12.491280
O   8   10.590290   10.141580   -5.741100
O   8   12.215730   11.777190  -14.673330
O   8   10.668490   11.386340   -8.125510
O   8   10.122300   14.019600   -0.146630
O   8   10.697720   13.925790   -8.905100
O   8   10.802730   14.361100   -2.693290
O   8   11.540170   16.083840  -10.279570
O   8   10.490880   15.176570   -5.196090
O   8   11.053210   17.485720   -6.377030
O   8   10.262560   18.482440   -8.740700
O   8   10.175540   17.744690   -1.032980
O   8   11.121390   19.791710   -2.423930
O   8   11.648980  -17.943920   -5.867490
O   8   12.346150  -16.010860   -4.118740
O   8   12.607130  -12.998890   -8.441530
O   8   11.663960  -14.027770   -2.481820
O   8   12.112680  -12.519460   -5.850650
O   8   12.415710  -11.795440   -1.149240
O   8   11.693870  -11.598130  -10.845220
O   8   11.403490  -10.222210   -4.760830
O   8   12.323960   -9.040290  -10.429500
O   8   11.409290   -9.232260   -2.285770
O   8   12.488650   -7.873770  -14.153710
O   8   12.837520   -7.824510   -8.150790
O   8   12.130070   -6.768680   -1.581350
O   8   11.407810   -5.680980  -13.091710
O   8   12.477440   -5.657370   -6.672740