 $offload rhf=.t. makefp=.t. $end
 $MP2 code=gpurimp2 $END
 $AUXBAS cabnam=ccd $END
! Change NGROUP to reflect number of nodes you are running on
! Functional groups are absorbed to MSN fragments
 $GDDI ngroup=256 $END
! Change 1st and 2nd entry of NGRFMO(1) to reflect number of nodes you
! are running on
 $FMOPRP
    !NGRFMO(1)= 905, 5430, 0, 905, 5430,   0, 0, 0, 0, 0
    NPRINT=1
 $END
 $SCF DIRSCF=.TRUE. DAMP=.TRUE. SHIFT=.TRUE. NPUNCH=0 $END
 $SYSTEM MWORDS=7000 MEMDDI=1500000 $END
 $LOCAL CVGLOC=1.0E-6 FCORE=.TRUE. $END
! Threaded integrals
 $INTGRL INTOMP=1 $END
 $CONTRL SCFTYP=RHF RUNTYP=ENERGY NPRINT=-5
         MPLEVL=2 ISPHER=1
         LOCAL=RUEDNBRG MAXIT=50 $END
 $FMO
     NBODY=2
     IEFMO=1
     RESDIM=1.0
! UNCOMMENT THE LINE BELOW FOR POST-HF RUNS
     RCORSD=1.0
     MODEFM(1)=0, 16, 1, 1, 1
     RAFO(1)=.1, 1, 1
     MAXCAO=9
     MAXBND=1005
     NLAYER=1
     NFRAG=1140
     ICHARG(1)=
          0, 0, 0, 0, 0, 0, 0, 0, 0, 0,
          0, 0, 0, 0, 0, 0, 0, 0, 0, 0,
          0, 0, 0, 0, 0, 0, 0, 0
     FRGNAM(1)=
            MSN1,   MSN2,   MSN3,   MSN4,
            MSN5,   MSN6,   MSN7,   MSN8,   MSN9,
           MSN10,  MSN11,  MSN12,  MSN13,
           MSN14,  MSN15,  MSNFN,
           MSN17,  MSN18,  MSN19,  MSN20,  MSN21,
           MSN22,  MSN23,  MSN24,  MSN25,  MSN26,
           MSN27,  MSN28
      INDAT(1)=0
     1 -66 0
     67 -117 0
     118 -180 0
     181 -240 0
     241 -297 0
     298 -357 0
     358 -414 0
     415 -477 0
     478 -538 0
     539 -598 0
     599 -655 0
     656 -715 0
     716 -790 0
     791 -856 0
     857 -922 0
     923 -981 0
     982 -1027 0
     1028 -1080 0
     1081 -1140 0
     1141 -1197 0
     1198 -1257 0
     1258 -1318 0
     1319 -1381 0
     1382 -1438 0
     1439 -1498 0
     1499 -1555 0
     1556 -1636 0
     1637 -1698 0
     1699 -1764 0
     1765 -1815 0
     1816 -1878 0
     1879 -1938 0
     1939 -1995 0
     1996 -2055 0
     2056 -2112 0
     2113 -2175 0
     2176 -2236 0
     2237 -2296 0
     2297 -2353 0
     2354 -2413 0
     2414 -2488 0
     2489 -2554 0
     2555 -2620 0
     2621 -2679 0
     2680 -2725 0
     2726 -2778 0
     2779 -2838 0
     2839 -2895 0
     2896 -2955 0
     2956 -3016 0
     3017 -3079 0
     3080 -3136 0
     3137 -3196 0
     3197 -3253 0
     3254 -3334 0
     3335 -3396 0
     3397 -3462 0
     3463 -3513 0
     3514 -3576 0
     3577 -3636 0
     3637 -3693 0
     3694 -3753 0
     3754 -3810 0
     3811 -3873 0
     3874 -3934 0
     3935 -3994 0
     3995 -4051 0
     4052 -4111 0
     4112 -4186 0
     4187 -4252 0
     4253 -4318 0
     4319 -4377 0
     4378 -4423 0
     4424 -4476 0
     4477 -4536 0
     4537 -4593 0
     4594 -4653 0
     4654 -4714 0
     4715 -4777 0
     4778 -4834 0
     4835 -4894 0
     4895 -4951 0
     4952 -5032 0
     5033 -5094 0
     5095 -5160 0
     5161 -5211 0
     5212 -5274 0
     5275 -5334 0
     5335 -5391 0
     5392 -5451 0
     5452 -5508 0
     5509 -5571 0
     5572 -5632 0
     5633 -5692 0
     5693 -5749 0
     5750 -5809 0
     5810 -5884 0
     5885 -5950 0
     5951 -6016 0
     6017 -6075 0
     6076 -6121 0
     6122 -6174 0
     6175 -6234 0
     6235 -6291 0
     6292 -6351 0
     6352 -6412 0
     6413 -6475 0
     6476 -6532 0
     6533 -6592 0
     6593 -6649 0
     6650 -6730 0
     6731 -6792 0
     6793 -6858 0
     6859 -6909 0
     6910 -6972 0
     6973 -7032 0
     7033 -7089 0
     7090 -7149 0
     7150 -7206 0
     7207 -7269 0
     7270 -7330 0
     7331 -7390 0
     7391 -7447 0
     7448 -7507 0
     7508 -7582 0
     7583 -7648 0
     7649 -7714 0
     7715 -7773 0
     7774 -7819 0
     7820 -7872 0
     7873 -7932 0
     7933 -7989 0
     7990 -8049 0
     8050 -8110 0
     8111 -8173 0
     8174 -8230 0
     8231 -8290 0
     8291 -8347 0
     8348 -8428 0
     8429 -8490 0
!insert
    8491     -8520    0
    8521     -8550    0
    8551     -8580    0
    8581     -8610    0
    8611     -8640    0
    8641     -8670    0
    8671     -8700    0
    8701     -8730    0
    8731     -8760    0
    8761     -8790    0
    8791     -8820    0
    8821     -8850    0
    8851     -8880    0
    8881     -8910    0
    8911     -8940    0
    8941     -8970    0
    8971     -9000    0
    9001     -9030    0
    9031     -9060    0
    9061     -9090    0
    9091     -9120    0
    9121     -9150    0
    9151     -9180    0
    9181     -9210    0
    9211     -9240    0
    9241     -9270    0
    9271     -9300    0
    9301     -9330    0
    9331     -9360    0
    9361     -9390    0
    9391     -9420    0
    9421     -9450    0
    9451     -9480    0
    9481     -9510    0
    9511     -9540    0
    9541     -9570    0
    9571     -9600    0
    9601     -9630    0
    9631     -9660    0
    9661     -9690    0
    9691     -9720    0
    9721     -9750    0
    9751     -9780    0
    9781     -9810    0
    9811     -9840    0
    9841     -9870    0
    9871     -9900    0
    9901     -9930    0
    9931     -9960    0
    9961     -9990    0
    9991     -10020    0
    10021     -10050    0
    10051     -10080    0
    10081     -10110    0
    10111     -10140    0
    10141     -10170    0
    10171     -10200    0
    10201     -10230    0
    10231     -10260    0
    10261     -10290    0
    10291     -10320    0
    10321     -10350    0
    10351     -10380    0
    10381     -10410    0
    10411     -10440    0
    10441     -10470    0
    10471     -10500    0
    10501     -10530    0
    10531     -10560    0
    10561     -10590    0
    10591     -10620    0
    10621     -10650    0
    10651     -10680    0
    10681     -10710    0
    10711     -10740    0
    10741     -10770    0
    10771     -10800    0
    10801     -10830    0
    10831     -10860    0
    10861     -10890    0
    10891     -10920    0
    10921     -10950    0
    10951     -10980    0
    10981     -11010    0
    11011     -11040    0
    11041     -11070    0
    11071     -11100    0
    11101     -11130    0
    11131     -11160    0
    11161     -11190    0
    11191     -11220    0
    11221     -11250    0
    11251     -11280    0
    11281     -11310    0
    11311     -11340    0
    11341     -11370    0
    11371     -11400    0
    11401     -11430    0
    11431     -11460    0
    11461     -11490    0
    11491     -11520    0
    11521     -11550    0
    11551     -11580    0
    11581     -11610    0
    11611     -11640    0
    11641     -11670    0
    11671     -11700    0
    11701     -11730    0
    11731     -11760    0
    11761     -11790    0
    11791     -11820    0
    11821     -11850    0
    11851     -11880    0
    11881     -11910    0
    11911     -11940    0
    11941     -11970    0
    11971     -12000    0
    12001     -12030    0
    12031     -12060    0
    12061     -12090    0
    12091     -12120    0
    12121     -12150    0
    12151     -12180    0
    12181     -12210    0
    12211     -12240    0
    12241     -12270    0
    12271     -12300    0
    12301     -12330    0
    12331     -12360    0
    12361     -12390    0
    12391     -12420    0
    12421     -12450    0
    12451     -12480    0
    12481     -12510    0
    12511     -12540    0
    12541     -12570    0
    12571     -12600    0
    12601     -12630    0
    12631     -12660    0
    12661     -12690    0
    12691     -12720    0
    12721     -12750    0
    12751     -12780    0
    12781     -12810    0
    12811     -12840    0
    12841     -12870    0
    12871     -12900    0
    12901     -12930    0
    12931     -12960    0
    12961     -12990    0
    12991     -13020    0
    13021     -13050    0
    13051     -13080    0
    13081     -13110    0
    13111     -13140    0
    13141     -13170    0
    13171     -13200    0
    13201     -13230    0
    13231     -13260    0
    13261     -13290    0
    13291     -13320    0
    13321     -13350    0
    13351     -13380    0
    13381     -13410    0
    13411     -13440    0
    13441     -13470    0
    13471     -13500    0
    13501     -13530    0
    13531     -13560    0
    13561     -13590    0
    13591     -13620    0
    13621     -13650    0
    13651     -13680    0
    13681     -13710    0
    13711     -13740    0
    13741     -13770    0
    13771     -13800    0
    13801     -13830    0
    13831     -13860    0
    13861     -13890    0
    13891     -13920    0
    13921     -13950    0
    13951     -13980    0
    13981     -14010    0
    14011     -14040    0
    14041     -14070    0
    14071     -14100    0
    14101     -14130    0
    14131     -14160    0
    14161     -14190    0
    14191     -14220    0
    14221     -14250    0
    14251     -14280    0
    14281     -14310    0
    14311     -14340    0
    14341     -14370    0
    14371     -14400    0
    14401     -14430    0
    14431     -14460    0
    14461     -14490    0
    14491     -14520    0
    14521     -14550    0
    14551     -14580    0
    14581     -14610    0
    14611     -14640    0
    14641     -14670    0
    14671     -14700    0
    14701     -14730    0
    14731     -14760    0
    14761     -14790    0
    14791     -14820    0
    14821     -14850    0
    14851     -14880    0
    14881     -14910    0
    14911     -14940    0
    14941     -14970    0
    14971     -15000    0
    15001     -15030    0
    15031     -15060    0
    15061     -15090    0
    15091     -15120    0
    15121     -15150    0
    15151     -15180    0
    15181     -15210    0
    15211     -15240    0
    15241     -15270    0
    15271     -15300    0
    15301     -15330    0
    15331     -15360    0
    15361     -15390    0
    15391     -15420    0
    15421     -15450    0
    15451     -15480    0
    15481     -15510    0
    15511     -15540    0
    15541     -15570    0
    15571     -15600    0
    15601     -15630    0
    15631     -15660    0
    15661     -15690    0
    15691     -15720    0
    15721     -15750    0
    15751     -15780    0
    15781     -15810    0
    15811     -15840    0
    15841     -15870    0
    15871     -15900    0
    15901     -15930    0
    15931     -15960    0
    15961     -15990    0
    15991     -16020    0
    16021     -16050    0
    16051     -16080    0
    16081     -16110    0
    16111     -16140    0
    16141     -16170    0
    16171     -16200    0
    16201     -16230    0
    16231     -16260    0
    16261     -16290    0
    16291     -16320    0
    16321     -16350    0
    16351     -16380    0
    16381     -16410    0
    16411     -16440    0
    16441     -16470    0
    16471     -16500    0
    16501     -16530    0
    16531     -16560    0
    16561     -16590    0
    16591     -16620    0
    16621     -16650    0
    16651     -16680    0
    16681     -16710    0
    16711     -16740    0
    16741     -16770    0
    16771     -16800    0
    16801     -16830    0
    16831     -16860    0
    16861     -16890    0
    16891     -16920    0
    16921     -16950    0
    16951     -16980    0
    16981     -17010    0
    17011     -17040    0
    17041     -17070    0
    17071     -17100    0
    17101     -17130    0
    17131     -17160    0
    17161     -17190    0
    17191     -17220    0
    17221     -17250    0
    17251     -17280    0
    17281     -17310    0
    17311     -17340    0
    17341     -17370    0
    17371     -17400    0
    17401     -17430    0
    17431     -17460    0
    17461     -17490    0
    17491     -17520    0
    17521     -17550    0
    17551     -17580    0
    17581     -17610    0
    17611     -17640    0
    17641     -17670    0
    17671     -17700    0
    17701     -17730    0
    17731     -17760    0
    17761     -17790    0
    17791     -17820    0
    17821     -17850    0
    17851     -17880    0
    17881     -17910    0
    17911     -17940    0
    17941     -17970    0
    17971     -18000    0
    18001     -18030    0
    18031     -18060    0
    18061     -18090    0
    18091     -18120    0
    18121     -18150    0
    18151     -18180    0
    18181     -18210    0
    18211     -18240    0
    18241     -18270    0
    18271     -18300    0
    18301     -18330    0
    18331     -18360    0
    18361     -18390    0
    18391     -18420    0
    18421     -18450    0
    18451     -18480    0
    18481     -18510    0
    18511     -18540    0
    18541     -18570    0
    18571     -18600    0
    18601     -18630    0
    18631     -18660    0
    18661     -18690    0
    18691     -18720    0
    18721     -18750    0
    18751     -18780    0
    18781     -18810    0
    18811     -18840    0
    18841     -18870    0
    18871     -18900    0
    18901     -18930    0
    18931     -18960    0
    18961     -18990    0
    18991     -19020    0
    19021     -19050    0
    19051     -19080    0
    19081     -19110    0
    19111     -19140    0
    19141     -19170    0
    19171     -19200    0
    19201     -19230    0
    19231     -19260    0
    19261     -19290    0
    19291     -19320    0
    19321     -19350    0
    19351     -19380    0
    19381     -19410    0
    19411     -19440    0
    19441     -19470    0
    19471     -19500    0
    19501     -19530    0
    19531     -19560    0
    19561     -19590    0
    19591     -19620    0
    19621     -19650    0
    19651     -19680    0
    19681     -19710    0
    19711     -19740    0
    19741     -19770    0
    19771     -19800    0
    19801     -19830    0
    19831     -19860    0
    19861     -19890    0
    19891     -19920    0
    19921     -19950    0
    19951     -19980    0
    19981     -20010    0
    20011     -20040    0
    20041     -20070    0
    20071     -20100    0
    20101     -20130    0
    20131     -20160    0
    20161     -20190    0
    20191     -20220    0
    20221     -20250    0
    20251     -20280    0
    20281     -20310    0
    20311     -20340    0
    20341     -20370    0
    20371     -20400    0
    20401     -20430    0
    20431     -20460    0
    20461     -20490    0
    20491     -20520    0
    20521     -20550    0
    20551     -20580    0
    20581     -20610    0
    20611     -20640    0
    20641     -20670    0
    20671     -20700    0
    20701     -20730    0
    20731     -20760    0
    20761     -20790    0
    20791     -20820    0
    20821     -20850    0
    20851     -20880    0
    20881     -20910    0
    20911     -20940    0
    20941     -20970    0
    20971     -21000    0
    21001     -21030    0
    21031     -21060    0
    21061     -21090    0
    21091     -21120    0
    21121     -21150    0
    21151     -21180    0
    21181     -21210    0
    21211     -21240    0
    21241     -21270    0
    21271     -21300    0
    21301     -21330    0
    21331     -21360    0
    21361     -21390    0
    21391     -21420    0
    21421     -21450    0
    21451     -21480    0
    21481     -21510    0
    21511     -21540    0
    21541     -21570    0
    21571     -21600    0
    21601     -21630    0
    21631     -21660    0
    21661     -21690    0
    21691     -21720    0
    21721     -21750    0
    21751     -21780    0
    21781     -21810    0
    21811     -21840    0
    21841     -21870    0
    21871     -21900    0
    21901     -21930    0
    21931     -21960    0
    21961     -21990    0
    21991     -22020    0
    22021     -22050    0
    22051     -22080    0
    22081     -22110    0
    22111     -22140    0
    22141     -22170    0
    22171     -22200    0
    22201     -22230    0
    22231     -22260    0
    22261     -22290    0
    22291     -22320    0
    22321     -22350    0
    22351     -22380    0
    22381     -22410    0
    22411     -22440    0
    22441     -22470    0
    22471     -22500    0
    22501     -22530    0
    22531     -22560    0
    22561     -22590    0
    22591     -22620    0
    22621     -22650    0
    22651     -22680    0
    22681     -22710    0
    22711     -22740    0
    22741     -22770    0
    22771     -22800    0
    22801     -22830    0
    22831     -22860    0
    22861     -22890    0
    22891     -22920    0
    22921     -22950    0
    22951     -22980    0
    22981     -23010    0
    23011     -23040    0
    23041     -23070    0
    23071     -23100    0
    23101     -23130    0
    23131     -23160    0
    23161     -23190    0
    23191     -23220    0
    23221     -23250    0
    23251     -23280    0
    23281     -23310    0
    23311     -23340    0
    23341     -23370    0
    23371     -23400    0
    23401     -23430    0
    23431     -23460    0
    23461     -23490    0
    23491     -23520    0
    23521     -23550    0
    23551     -23580    0
    23581     -23610    0
    23611     -23640    0
    23641     -23670    0
    23671     -23700    0
    23701     -23730    0
    23731     -23760    0
    23761     -23790    0
    23791     -23820    0
    23821     -23850    0
    23851     -23880    0
    23881     -23910    0
    23911     -23940    0
    23941     -23970    0
    23971     -24000    0
    24001     -24030    0
    24031     -24060    0
    24061     -24090    0
    24091     -24120    0
    24121     -24150    0
    24151     -24180    0
    24181     -24210    0
    24211     -24240    0
    24241     -24270    0
    24271     -24300    0
    24301     -24330    0
    24331     -24360    0
    24361     -24390    0
    24391     -24420    0
    24421     -24450    0
    24451     -24480    0
    24481     -24510    0
    24511     -24540    0
    24541     -24570    0
    24571     -24600    0
    24601     -24630    0
    24631     -24660    0
    24661     -24690    0
    24691     -24720    0
    24721     -24750    0
    24751     -24780    0
    24781     -24810    0
    24811     -24840    0
    24841     -24870    0
    24871     -24900    0
    24901     -24930    0
    24931     -24960    0
    24961     -24990    0
    24991     -25020    0
    25021     -25050    0
    25051     -25080    0
    25081     -25110    0
    25111     -25140    0
    25141     -25170    0
    25171     -25200    0
    25201     -25230    0
    25231     -25260    0
    25261     -25290    0
    25291     -25320    0
    25321     -25350    0
    25351     -25380    0
    25381     -25410    0
    25411     -25440    0
    25441     -25470    0
    25471     -25500    0
    25501     -25530    0
    25531     -25560    0
    25561     -25590    0
    25591     -25620    0
    25621     -25650    0
    25651     -25680    0
    25681     -25710    0
    25711     -25740    0
    25741     -25770    0
    25771     -25800    0
    25801     -25830    0
    25831     -25860    0
    25861     -25890    0
    25891     -25920    0
    25921     -25950    0
    25951     -25980    0
    25981     -26010    0
    26011     -26040    0
    26041     -26070    0
    26071     -26100    0
    26101     -26130    0
    26131     -26160    0
    26161     -26190    0
    26191     -26220    0
    26221     -26250    0
    26251     -26280    0
    26281     -26310    0
    26311     -26340    0
    26341     -26370    0
    26371     -26400    0
    26401     -26430    0
    26431     -26460    0
    26461     -26490    0
    26491     -26520    0
    26521     -26550    0
    26551     -26580    0
    26581     -26610    0
    26611     -26640    0
    26641     -26670    0
    26671     -26700    0
    26701     -26730    0
    26731     -26760    0
    26761     -26790    0
    26791     -26820    0
    26821     -26850    0
    26851     -26880    0
    26881     -26910    0
    26911     -26940    0
    26941     -26970    0
    26971     -27000    0
    27001     -27030    0
    27031     -27060    0
    27061     -27090    0
    27091     -27120    0
    27121     -27150    0
    27151     -27180    0
    27181     -27210    0
    27211     -27240    0
    27241     -27270    0
    27271     -27300    0
    27301     -27330    0
    27331     -27360    0
    27361     -27390    0
    27391     -27420    0
    27421     -27450    0
    27451     -27480    0
    27481     -27510    0
    27511     -27540    0
    27541     -27570    0
    27571     -27600    0
    27601     -27630    0
    27631     -27660    0
    27661     -27690    0
    27691     -27720    0
    27721     -27750    0
    27751     -27780    0
    27781     -27810    0
    27811     -27840    0
    27841     -27870    0
    27871     -27900    0
    27901     -27930    0
    27931     -27960    0
    27961     -27990    0
    27991     -28020    0
    28021     -28050    0
    28051     -28080    0
    28081     -28110    0
    28111     -28140    0
    28141     -28170    0
    28171     -28200    0
    28201     -28230    0
    28231     -28260    0
    28261     -28290    0
    28291     -28320    0
    28321     -28350    0
    28351     -28380    0
    28381     -28410    0
    28411     -28440    0
    28441     -28470    0
    28471     -28500    0
    28501     -28530    0
    28531     -28560    0
    28561     -28590    0
    28591     -28620    0
    28621     -28650    0
    28651     -28680    0
    28681     -28710    0
    28711     -28740    0
    28741     -28770    0
    28771     -28800    0
    28801     -28830    0
    28831     -28860    0
    28861     -28890    0
    28891     -28920    0
    28921     -28950    0
    28951     -28980    0
    28981     -29010    0
    29011     -29040    0
    29041     -29070    0
    29071     -29100    0
    29101     -29130    0
    29131     -29160    0
    29161     -29190    0
    29191     -29220    0
    29221     -29250    0
    29251     -29280    0
    29281     -29310    0
    29311     -29340    0
    29341     -29370    0
    29371     -29400    0
    29401     -29430    0
    29431     -29460    0
    29461     -29490    0
    29491     -29520    0
    29521     -29550    0
    29551     -29580    0
    29581     -29610    0
    29611     -29640    0
    29641     -29670    0
    29671     -29700    0
    29701     -29730    0
    29731     -29760    0
    29761     -29790    0
    29791     -29820    0
    29821     -29850    0
    29851     -29880    0
    29881     -29910    0
    29911     -29940    0
    29941     -29970    0
    29971     -30000    0
    30001     -30030    0
    30031     -30060    0
    30061     -30090    0
    30091     -30120    0
    30121     -30150    0
    30151     -30180    0
    30181     -30210    0
    30211     -30240    0
    30241     -30270    0
    30271     -30300    0
    30301     -30330    0
    30331     -30360    0
    30361     -30390    0
    30391     -30420    0
    30421     -30450    0
    30451     -30480    0
    30481     -30510    0
    30511     -30540    0
    30541     -30570    0
    30571     -30600    0
    30601     -30630    0
    30631     -30660    0
    30661     -30690    0
    30691     -30720    0
    30721     -30750    0
    30751     -30780    0
    30781     -30810    0
    30811     -30840    0
    30841     -30870    0
    30871     -30900    0
    30901     -30930    0
    30931     -30960    0
    30961     -30990    0
    30991     -31020    0
    31021     -31050    0
    31051     -31080    0
    31081     -31110    0
    31111     -31140    0
    31141     -31170    0
    31171     -31200    0
    31201     -31230    0
    31231     -31260    0
    31261     -31290    0
    31291     -31320    0
    31321     -31350    0
    31351     -31380    0
    31381     -31410    0
    31411     -31440    0
    31441     -31470    0
    31471     -31500    0
    31501     -31530    0
    31531     -31560    0
    31561     -31590    0
    31591     -31620    0
    31621     -31650    0
    31651     -31680    0
    31681     -31710    0
    31711     -31740    0
    31741     -31770    0
    31771     -31800    0
    31801     -31830    0
    31831     -31860    0
    31861     -31890    0
    31891     -31920    0
    31921     -31950    0
    31951     -31980    0
    31981     -32010    0
    32011     -32040    0
    32041     -32070    0
    32071     -32100    0
    32101     -32130    0
    32131     -32160    0
    32161     -32190    0
    32191     -32220    0
    32221     -32250    0
    32251     -32280    0
    32281     -32310    0
    32311     -32340    0
    32341     -32370    0
    32371     -32400    0
    32401     -32430    0
    32431     -32460    0
    32461     -32490    0
    32491     -32520    0
    32521     -32550    0
    32551     -32580    0
    32581     -32610    0
    32611     -32640    0
    32641     -32670    0
    32671     -32700    0
    32701     -32730    0
    32731     -32760    0
    32761     -32790    0
    32791     -32820    0
    32821     -32850    0
    32851     -32880    0
    32881     -32910    0
    32911     -32940    0
    32941     -32970    0
    32971     -33000    0
    33001     -33030    0
    33031     -33060    0
    33061     -33090    0
    33091     -33120    0
    33121     -33150    0
    33151     -33180    0
    33181     -33210    0
    33211     -33240    0
    33241     -33270    0
    33271     -33300    0
    33301     -33330    0
    33331     -33360    0
    33361     -33390    0
    33391     -33420    0
    33421     -33450    0
    33451     -33480    0
    33481     -33510    0
    33511     -33540    0
    33541     -33570    0
    33571     -33600    0
    33601     -33630    0
    33631     -33660    0
    33661     -33690    0
    33691     -33720    0
    33721     -33750    0
    33751     -33780    0
    33781     -33810    0
    33811     -33840    0
    33841     -33870    0
    33871     -33900    0
    33901     -33930    0
    33931     -33960    0
    33961     -33990    0
    33991     -34020    0
    34021     -34050    0
    34051     -34080    0
    34081     -34110    0
    34111     -34140    0
    34141     -34170    0
    34171     -34200    0
    34201     -34230    0
    34231     -34260    0
    34261     -34290    0
    34291     -34320    0
    34321     -34350    0
    34351     -34380    0
    34381     -34410    0
    34411     -34440    0
    34441     -34470    0
    34471     -34500    0
    34501     -34530    0
    34531     -34560    0
    34561     -34590    0
    34591     -34620    0
    34621     -34650    0
    34651     -34680    0
    34681     -34710    0
    34711     -34740    0
    34741     -34770    0
    34771     -34800    0
    34801     -34830    0
    34831     -34860    0
    34861     -34890    0
    34891     -34920    0
    34921     -34950    0
    34951     -34980    0
    34981     -35010    0
    35011     -35040    0
    35041     -35070    0
    35071     -35100    0
    35101     -35130    0
    35131     -35160    0
    35161     -35190    0
    35191     -35220    0
    35221     -35250    0
    35251     -35280    0
    35281     -35310    0
    35311     -35340    0
    35341     -35370    0
    35371     -35400    0
    35401     -35430    0
    35431     -35460    0
    35461     -35490    0
    35491     -35520    0
    35521     -35550    0
    35551     -35580    0
    35581     -35610    0
    35611     -35640    0
    35641     -35670    0
    35671     -35700    0
    35701     -35730    0
    35731     -35760    0
    35761     -35790    0
    35791     -35820    0
    35821     -35850    0
    35851     -35880    0
    35881     -35910    0
    35911     -35940    0
    35941     -35970    0
    35971     -36000    0
    36001     -36030    0
    36031     -36060    0
    36061     -36090    0
    36091     -36120    0
    36121     -36150    0
    36151     -36180    0
    36181     -36210    0
    36211     -36240    0
    36241     -36270    0
    36271     -36300    0
    36301     -36330    0
    36331     -36360    0
    36361     -36390    0
    36391     -36420    0
    36421     -36450    0
    36451     -36480    0
    36481     -36510    0
    36511     -36540    0
    36541     -36570    0
    36571     -36600    0
    36601     -36630    0
    36631     -36660    0
    36661     -36690    0
    36691     -36720    0
    36721     -36750    0
    36751     -36780    0
    36781     -36810    0
    36811     -36840    0
    36841     -36870    0
    36871     -36900    0
    36901     -36930    0
    36931     -36960    0
    36961     -36990    0
    36991     -37020    0
    37021     -37050    0
    37051     -37080    0
    37081     -37110    0
    37111     -37140    0
    37141     -37170    0
    37171     -37200    0
    37201     -37230    0
    37231     -37260    0
    37261     -37290    0
    37291     -37320    0
    37321     -37350    0
    37351     -37380    0
    37381     -37410    0
    37411     -37440    0
    37441     -37470    0
    37471     -37500    0
    37501     -37530    0
    37531     -37560    0
    37561     -37590    0
    37591     -37620    0
    37621     -37650    0
    37651     -37680    0
    37681     -37710    0
    37711     -37740    0
    37741     -37770    0
    37771     -37800    0
    37801     -37830    0
    37831     -37860    0
    37861     -37890    0
    37891     -37920    0
    37921     -37950    0
    37951     -37980    0
    37981     -38010    0
    38011     -38040    0
    38041     -38070    0
    38071     -38100    0
    38101     -38130    0
    38131     -38160    0
    38161     -38190    0
    38191     -38220    0
    38221     -38250    0
    38251     -38280    0
    38281     -38310    0
    38311     -38340    0
    38341     -38370    0
    38371     -38400    0
    38401     -38430    0
    38431     -38460    0
    38461     -38490    0
 $END
 $FMOBND
       -1276    1321
       -1415    1325
       -1174    1200
       -1233    1262
       -1234    1326
       -1278    1331
       -1418    1333
       -1474    1388
       -1419    1336
       -1475    1390
       -1532    1443