 $offload rhf=.t. makefp=.t. $end
 $MP2 code=gpurimp2 $END
 $AUXBAS cabnam=ccd $END
! Change NGROUP to reflect number of nodes you are running on
! Functional groups are absorbed to MSN fragments
 $GDDI ngroup=250 $END
! Change 1st and 2nd entry of NGRFMO(1) to reflect number of nodes you
! are running on
 $FMOPRP
    !NGRFMO(1)= 905, 5430, 0, 905, 5430,   0, 0, 0, 0, 0
    NPRINT=1
 $END
 $SCF DIRSCF=.TRUE. DAMP=.TRUE. SHIFT=.TRUE. NPUNCH=0 $END
 $SYSTEM MWORDS=3000 MEMDDI=1500000 $END
 $LOCAL CVGLOC=1.0E-6 FCORE=.TRUE. $END
! Threaded integrals
 $INTGRL INTOMP=1 $END
 $CONTRL SCFTYP=RHF RUNTYP=ENERGY NPRINT=-5
         MPLEVL=2 ISPHER=1
         LOCAL=RUEDNBRG MAXIT=50 $END
 $FMO
     NBODY=2
     IEFMO=1
     RESDIM=1.0
! UNCOMMENT THE LINE BELOW FOR POST-HF RUNS
     RCORSD=1.0
     MODEFM(1)=0, 16, 1, 1, 1
     RAFO(1)=.1, 1, 1
     MAXCAO=9
     MAXBND=1005
     NLAYER=1
     NFRAG=307
     ICHARG(1)=
          0, 0, 0, 0, 0, 0, 0, 0, 0, 0,
          0, 0, 0, 0, 0, 0, 0, 0, 0, 0,
          0, 0, 0, 0, 0, 0, 0, 0
     FRGNAM(1)=
            MSN1,   MSN2,   MSN3,   MSN4,
            MSN5,   MSN6,   MSN7,   MSN8,   MSN9,
           MSN10,  MSN11,  MSN12,  MSN13,
           MSN14,  MSN15,  MSNFN,
           MSN17,  MSN18,  MSN19,  MSN20,  MSN21,
           MSN22,  MSN23,  MSN24,  MSN25,  MSN26,
           MSN27,  MSN28
      INDAT(1)=0
     1 -66 0
     67 -117 0
     118 -180 0
     181 -240 0
     241 -297 0
     298 -357 0
     358 -414 0
     415 -477 0
     478 -538 0
     539 -598 0
     599 -655 0
     656 -715 0
     716 -790 0
     791 -856 0
     857 -922 0
     923 -981 0
     982 -1027 0
     1028 -1080 0
     1081 -1140 0
     1141 -1197 0
     1198 -1257 0
     1258 -1318 0
     1319 -1381 0
     1382 -1438 0
     1439 -1498 0
     1499 -1555 0
     1556 -1636 0
     1637 -1698 0
     1699 -1764 0
     1765 -1815 0
     1816 -1878 0
     1879 -1938 0
     1939 -1995 0
     1996 -2055 0
     2056 -2112 0
     2113 -2175 0
     2176 -2236 0
     2237 -2296 0
     2297 -2353 0
     2354 -2413 0
     2414 -2488 0
     2489 -2554 0
     2555 -2620 0
     2621 -2679 0
     2680 -2725 0
     2726 -2778 0
     2779 -2838 0
     2839 -2895 0
     2896 -2955 0
     2956 -3016 0
     3017 -3079 0
     3080 -3136 0
     3137 -3196 0
     3197 -3253 0
     3254 -3334 0
     3335 -3396 0
     3397 -3462 0
     3463 -3513 0
     3514 -3576 0
     3577 -3636 0
     3637 -3693 0
     3694 -3753 0
     3754 -3810 0
     3811 -3873 0
     3874 -3934 0
     3935 -3994 0
     3995 -4051 0
     4052 -4111 0
     4112 -4186 0
     4187 -4252 0
     4253 -4318 0
     4319 -4377 0
     4378 -4423 0
     4424 -4476 0
     4477 -4536 0
     4537 -4593 0
     4594 -4653 0
     4654 -4714 0
     4715 -4777 0
     4778 -4834 0
     4835 -4894 0
     4895 -4951 0
     4952 -5032 0
     5033 -5094 0
     5095 -5160 0
     5161 -5211 0
     5212 -5274 0
     5275 -5334 0
     5335 -5391 0
     5392 -5451 0
     5452 -5508 0
     5509 -5571 0
     5572 -5632 0
     5633 -5692 0
     5693 -5749 0
     5750 -5809 0
     5810 -5884 0
     5885 -5950 0
     5951 -6016 0
     6017 -6075 0
     6076 -6121 0
     6122 -6174 0
     6175 -6234 0
     6235 -6291 0
     6292 -6351 0
     6352 -6412 0
     6413 -6475 0
     6476 -6532 0
     6533 -6592 0
     6593 -6649 0
     6650 -6730 0
     6731 -6792 0
     6793 -6858 0
     6859 -6909 0
     6910 -6972 0
     6973 -7032 0
     7033 -7089 0
     7090 -7149 0
     7150 -7206 0
     7207 -7269 0
     7270 -7330 0
     7331 -7390 0
     7391 -7447 0
     7448 -7507 0
     7508 -7582 0
     7583 -7648 0
     7649 -7714 0
     7715 -7773 0
     7774 -7819 0
     7820 -7872 0
     7873 -7932 0
     7933 -7989 0
     7990 -8049 0
     8050 -8110 0
     8111 -8173 0
     8174 -8230 0
     8231 -8290 0
     8291 -8347 0
     8348 -8428 0
     8429 -8490 0
!insert
    8491     -8580    0
    8581     -8670    0
    8671     -8760    0
    8761     -8850    0
    8851     -8940    0
    8941     -9030    0
    9031     -9120    0
    9121     -9210    0
    9211     -9300    0
    9301     -9390    0
    9391     -9480    0
    9481     -9570    0
    9571     -9660    0
    9661     -9750    0
    9751     -9840    0
    9841     -9930    0
    9931     -10020    0
    10021     -10110    0
    10111     -10200    0
    10201     -10290    0
    10291     -10380    0
    10381     -10470    0
    10471     -10560    0
    10561     -10650    0
    10651     -10740    0
    10741     -10830    0
    10831     -10920    0
    10921     -11010    0
    11011     -11100    0
    11101     -11190    0
    11191     -11280    0
    11281     -11370    0
    11371     -11460    0
    11461     -11550    0
    11551     -11640    0
    11641     -11730    0
    11731     -11820    0
    11821     -11910    0
    11911     -12000    0
    12001     -12090    0
    12091     -12180    0
    12181     -12270    0
    12271     -12360    0
    12361     -12450    0
    12451     -12540    0
    12541     -12630    0
    12631     -12720    0
    12721     -12810    0
    12811     -12900    0
    12901     -12990    0
    12991     -13080    0
    13081     -13170    0
    13171     -13260    0
    13261     -13350    0
    13351     -13440    0
    13441     -13530    0
    13531     -13620    0
    13621     -13710    0
    13711     -13800    0
    13801     -13890    0
    13891     -13980    0
    13981     -14070    0
    14071     -14160    0
    14161     -14250    0
    14251     -14340    0
    14341     -14430    0
    14431     -14520    0
    14521     -14610    0
    14611     -14700    0
    14701     -14790    0
    14791     -14880    0
    14881     -14970    0
    14971     -15060    0
    15061     -15150    0
    15151     -15240    0
    15241     -15330    0
    15331     -15420    0
    15421     -15510    0
    15511     -15600    0
    15601     -15690    0
    15691     -15780    0
    15781     -15870    0
    15871     -15960    0
    15961     -16050    0
    16051     -16140    0
    16141     -16230    0
    16231     -16320    0
    16321     -16410    0
    16411     -16500    0
    16501     -16590    0
    16591     -16680    0
    16681     -16770    0
    16771     -16860    0
    16861     -16950    0
    16951     -17040    0
    17041     -17130    0
    17131     -17220    0
    17221     -17310    0
    17311     -17400    0
    17401     -17490    0
    17491     -17580    0
    17581     -17670    0
    17671     -17760    0
    17761     -17850    0
    17851     -17940    0
    17941     -18030    0
    18031     -18120    0
    18121     -18210    0
    18211     -18300    0
    18301     -18390    0
    18391     -18480    0
    18481     -18570    0
    18571     -18660    0
    18661     -18750    0
    18751     -18840    0
    18841     -18930    0
    18931     -19020    0
    19021     -19110    0
    19111     -19200    0
    19201     -19290    0
    19291     -19380    0
    19381     -19470    0
    19471     -19560    0
    19561     -19650    0
    19651     -19740    0
    19741     -19830    0
    19831     -19920    0
    19921     -20010    0
    20011     -20100    0
    20101     -20190    0
    20191     -20280    0
    20281     -20370    0
    20371     -20460    0
    20461     -20550    0
    20551     -20640    0
    20641     -20730    0
    20731     -20820    0
    20821     -20910    0
    20911     -21000    0
    21001     -21090    0
    21091     -21180    0
    21181     -21270    0
    21271     -21360    0
    21361     -21450    0
    21451     -21540    0
    21541     -21630    0
    21631     -21720    0
    21721     -21810    0
    21811     -21900    0
    21901     -21990    0
    21991     -22080    0
    22081     -22170    0
    22171     -22260    0
    22261     -22350    0
    22351     -22440    0
    22441     -22530    0
    22531     -22620    0
    22621     -22710    0
    22711     -22800    0
    22801     -22890    0
    22891     -22980    0
    22981     -23070    0
    23071     -23160    0
    23161     -23250    0
    23251     -23340    0
    23341     -23430    0
    23431     -23490    0
 $END
 $FMOBND
       -1276    1321
       -1415    1325
       -1174    1200
       -1233    1262
       -1234    1326
       -1278    1331
       -1418    1333
       -1474    1388
       -1419    1336
       -1475    1390
       -1532    1443
       -1057    1083
       -1116    1146
       -1117    1148
       -1177    1208
       -1178    1210
       -1237    1267
       -1238    1337
       -1280    1342
       -1059    984
       -1422    1344
       -1478    1397
       -1423    1347
       -1535    1450
       -1479    1399
       -1600    1505
       -1536    1452
       -1601    1507
       -1010    1033
       -1060    1091
       -1061    1093
       -1120    1155
       -1121    1157
       -1181    1217
       -1182    1219
       -1241    1272
       -1242    1348
       -1282    1353
       -1603    1638
       -1669    1566
       -952    988
       -1063    992
       -1426    1355
       -1482    1406
       -1427    1357
       -1539    1459
       -1483    1408
       -1605    1514
       -1540    1461
       -1606    1516
       -1671    2
       -953    990
       -1013    1041
       -954    857
       -1064    1100
       -1065    1102
       -1124    1164
       -1125    1166
       -1185    1226
       -1186    1228
       -1245    1358
       -1672    3
       -1608    1647
       -1673    1577
       -955    858
       -956    996
       -1067    1000
       -1486    1414
       -1543    1468
       -1610    1523
       -1544    1470
       -1611    1525
       -75    120
       -1675    8
       -957    998
       -1016    1049
       -822    716
       -958    859
       -1068    1109
       -1069    1111
       -1128    1172
       -151    84
       -1676    9
       -1613    1656
       -1677    1588
       -823    719
       -959    860
       -960    1004
       -1070    1007
       -1615    1531
       -153    184
       -76    126
       -1679    14
       -961    1005
       -826    727
       -962    861
       -154    90
       -1680    15
       -1681    1597
       -827    731
       -963    862
       -964    1009
       -214    242
       -156    193
       -157    186
       -77    134
       -1682    20
       -760    658
       -830    739
       -965    863
       -761    660
       -690    599
       -158    96
       -831    743
       -332    359
       -275    301
       -276    303
       -217    248
       -218    250
       -160    202
       -161    195
       -78    142
       -765    667
       -833    751
       -693    605
       -766    669
       -633    541
       -694    607
       -634    543
       -573    478
       -392    482
       -393    416
       -335    365
       -336    367
       -279    310
       -280    312
       -221    257
       -222    259
       -163    204
       -770    676
       -697    614
       -771    678
       -637    550
       -698    616
       -576    483
       -638    552
       -577    486
       -435    488
       -396    492
       -397    421
       -339    374
       -340    376
       -283    319
       -284    321
       -225    266
       -226    268
       -164    212
       -774    685
       -701    623
       -641    559
       -702    625
       -580    493
       -642    561
       -581    496
       -437    498
       -400    502
       -401    426
       -343    383
       -344    385
       -287    329
       -645    568
       -584    503
       -585    506
       -439    508
       -404    431
       -1299    1323
       -1301    1334
       -1303    1345
       -456    485
       -458    495
       -460    505
       -462    513
       -895    834
       -896    835
       -899    836
       -900    837
       -903    838
       -904    839
       -906    840
       -44    80
       -45    81
       -46    86
       -47    87
       -48    92
       -49    93
       -50    98
       -2974    3019
       -3113    3023
       -2872    2898
       -2931    2960
       -2932    3024
       -2976    3029
       -3116    3031
       -3172    3086
       -3117    3034
       -3173    3088
       -3230    3141
       -2755    2781
       -2814    2844
       -2815    2846
       -2875    2906
       -2876    2908
       -2935    2965
       -2936    3035
       -2978    3040
       -2757    2682
       -3120    3042
       -3176    3095
       -3121    3045
       -3233    3148
       -3177    3097
       -3298    3203
       -3234    3150
       -3299    3205
       -2708    2731
       -2758    2789
       -2759    2791
       -2818    2853
       -2819    2855
       -2879    2915
       -2880    2917
       -2939    2970
       -2940    3046
       -2980    3051
       -3301    3336
       -3367    3264
       -2650    2686
       -2761    2690
       -3124    3053
       -3180    3104
       -3125    3055
       -3237    3157
       -3181    3106
       -3303    3212
       -3238    3159
       -3304    3214
       -3369    1700
       -2651    2688
       -2711    2739
       -2652    2555
       -2762    2798
       -2763    2800
       -2822    2862
       -2823    2864
       -2883    2924
       -2884    2926
       -2943    3056
       -3370    1701
       -3306    3345
       -3371    3275
       -2653    2556
       -2654    2694
       -2765    2698
       -3184    3112
       -3241    3166
       -3308    3221
       -3242    3168
       -3309    3223
       -1773    1818
       -3373    1706
       -2655    2696
       -2714    2747
       -2520    2414
       -2656    2557
       -2766    2807
       -2767    2809
       -2826    2870
       -1849    1782
       -3374    1707
       -3311    3354
       -3375    3286
       -2521    2417
       -2657    2558
       -2658    2702
       -2768    2705
       -3313    3229
       -1851    1882
       -1774    1824
       -3377    1712
       -2659    2703
       -2524    2425
       -2660    2559
       -1852    1788
       -3378    1713
       -3379    3295
       -2525    2429
       -2661    2560
       -2662    2707
       -1912    1940
       -1854    1891
       -1855    1884
       -1775    1832
       -3380    1718
       -2458    2356
       -2528    2437
       -2663    2561
       -2459    2358
       -2388    2297
       -1856    1794
       -2529    2441
       -2030    2057
       -1973    1999
       -1974    2001
       -1915    1946
       -1916    1948
       -1858    1900
       -1859    1893
       -1776    1840
       -2463    2365
       -2531    2449
       -2391    2303
       -2464    2367
       -2331    2239
       -2392    2305
       -2332    2241
       -2271    2176
       -2090    2180
       -2091    2114
       -2033    2063
       -2034    2065
       -1977    2008
       -1978    2010
       -1919    1955
       -1920    1957
       -1861    1902
       -2468    2374
       -2395    2312
       -2469    2376
       -2335    2248
       -2396    2314
       -2274    2181
       -2336    2250
       -2275    2184
       -2133    2186
       -2094    2190
       -2095    2119
       -2037    2072
       -2038    2074
       -1981    2017
       -1982    2019
       -1923    1964
       -1924    1966
       -1862    1910
       -2472    2383
       -2399    2321
       -2339    2257
       -2400    2323
       -2278    2191
       -2340    2259
       -2279    2194
       -2135    2196
       -2098    2200
       -2099    2124
       -2041    2081
       -2042    2083
       -1985    2027
       -2343    2266
       -2282    2201
       -2283    2204
       -2137    2206
       -2102    2129
       -2997    3021
       -2999    3032
       -3001    3043
       -2154    2183
       -2156    2193
       -2158    2203
       -2160    2211
       -2593    2532
       -2594    2533
       -2597    2534
       -2598    2535
       -2601    2536
       -2602    2537
       -2604    2538
       -1742    1778
       -1743    1779
       -1744    1784
       -1745    1785
       -1746    1790
       -1747    1791
       -1748    1796
       -4672    4717
       -4811    4721
       -4570    4596
       -4629    4658
       -4630    4722
       -4674    4727
       -4814    4729
       -4870    4784
       -4815    4732
       -4871    4786
       -4928    4839
       -4453    4479
       -4512    4542
       -4513    4544
       -4573    4604
       -4574    4606
       -4633    4663
       -4634    4733
       -4676    4738
       -4455    4380
       -4818    4740
       -4874    4793
       -4819    4743
       -4931    4846
       -4875    4795
       -4996    4901
       -4932    4848
       -4997    4903
       -4406    4429
       -4456    4487
       -4457    4489
       -4516    4551
       -4517    4553
       -4577    4613
       -4578    4615
       -4637    4668
       -4638    4744
       -4678    4749
       -4999    5034
       -5065    4962
       -4348    4384
       -4459    4388
       -4822    4751
       -4878    4802
       -4823    4753
       -4935    4855
       -4879    4804
       -5001    4910
       -4936    4857
       -5002    4912
       -5067    3398
       -4349    4386
       -4409    4437
       -4350    4253
       -4460    4496
       -4461    4498
       -4520    4560
       -4521    4562
       -4581    4622
       -4582    4624
       -4641    4754
       -5068    3399
       -5004    5043
       -5069    4973
       -4351    4254
       -4352    4392
       -4463    4396
       -4882    4810
       -4939    4864
       -5006    4919
       -4940    4866
       -5007    4921
       -3471    3516
       -5071    3404
       -4353    4394
       -4412    4445
       -4218    4112
       -4354    4255
       -4464    4505
       -4465    4507
       -4524    4568
       -3547    3480
       -5072    3405
       -5009    5052
       -5073    4984
       -4219    4115
       -4355    4256
       -4356    4400
       -4466    4403
       -5011    4927
       -3549    3580
       -3472    3522
       -5075    3410
       -4357    4401
       -4222    4123
       -4358    4257
       -3550    3486
       -5076    3411
       -5077    4993
       -4223    4127
       -4359    4258
       -4360    4405
       -3610    3638
       -3552    3589
       -3553    3582
       -3473    3530
       -5078    3416
       -4156    4054
       -4226    4135
       -4361    4259
       -4157    4056
       -4086    3995
       -3554    3492
       -4227    4139
       -3728    3755
       -3671    3697
       -3672    3699
       -3613    3644
       -3614    3646
       -3556    3598
       -3557    3591
       -3474    3538
       -4161    4063
       -4229    4147
       -4089    4001
       -4162    4065
       -4029    3937
       -4090    4003
       -4030    3939
       -3969    3874
       -3788    3878
       -3789    3812
       -3731    3761
       -3732    3763
       -3675    3706
       -3676    3708
       -3617    3653
       -3618    3655
       -3559    3600
       -4166    4072
       -4093    4010
       -4167    4074
       -4033    3946
       -4094    4012
       -3972    3879
       -4034    3948
       -3973    3882
       -3831    3884
       -3792    3888
       -3793    3817
       -3735    3770
       -3736    3772
       -3679    3715
       -3680    3717
       -3621    3662
       -3622    3664
       -3560    3608
       -4170    4081
       -4097    4019
       -4037    3955
       -4098    4021
       -3976    3889
       -4038    3957
       -3977    3892
       -3833    3894
       -3796    3898
       -3797    3822
       -3739    3779
       -3740    3781
       -3683    3725
       -4041    3964
       -3980    3899
       -3981    3902
       -3835    3904
       -3800    3827
       -4695    4719
       -4697    4730
       -4699    4741
       -3852    3881
       -3854    3891
       -3856    3901
       -3858    3909
       -4291    4230
       -4292    4231
       -4295    4232
       -4296    4233
       -4299    4234
       -4300    4235
       -4302    4236
       -3440    3476
       -3441    3477
       -3442    3482
       -3443    3483
       -3444    3488
       -3445    3489
       -3446    3494
       -6370    6415
       -6509    6419
       -6268    6294
       -6327    6356
       -6328    6420
       -6372    6425
       -6512    6427
       -6568    6482
       -6513    6430
       -6569    6484
       -6626    6537
       -6151    6177
       -6210    6240
       -6211    6242
       -6271    6302
       -6272    6304
       -6331    6361
       -6332    6431
       -6374    6436
       -6153    6078
       -6516    6438
       -6572    6491
       -6517    6441
       -6629    6544
       -6573    6493
       -6694    6599
       -6630    6546
       -6695    6601
       -6104    6127
       -6154    6185
       -6155    6187
       -6214    6249
       -6215    6251
       -6275    6311
       -6276    6313
       -6335    6366
       -6336    6442
       -6376    6447
       -6697    6732
       -6763    6660
       -6046    6082
       -6157    6086
       -6520    6449
       -6576    6500
       -6521    6451
       -6633    6553
       -6577    6502
       -6699    6608
       -6634    6555
       -6700    6610
       -6765    5096
       -6047    6084
       -6107    6135
       -6048    5951
       -6158    6194
       -6159    6196
       -6218    6258
       -6219    6260
       -6279    6320
       -6280    6322
       -6339    6452
       -6766    5097
       -6702    6741
       -6767    6671
       -6049    5952
       -6050    6090
       -6161    6094
       -6580    6508
       -6637    6562
       -6704    6617
       -6638    6564
       -6705    6619
       -5169    5214
       -6769    5102
       -6051    6092
       -6110    6143
       -5916    5810
       -6052    5953
       -6162    6203
       -6163    6205
       -6222    6266
       -5245    5178
       -6770    5103
       -6707    6750
       -6771    6682
       -5917    5813
       -6053    5954
       -6054    6098
       -6164    6101
       -6709    6625
       -5247    5278
       -5170    5220
       -6773    5108
       -6055    6099
       -5920    5821
       -6056    5955
       -5248    5184
       -6774    5109
       -6775    6691
       -5921    5825
       -6057    5956
       -6058    6103
       -5308    5336
       -5250    5287
       -5251    5280
       -5171    5228
       -6776    5114
       -5854    5752
       -5924    5833
       -6059    5957
       -5855    5754
       -5784    5693
       -5252    5190
       -5925    5837
       -5426    5453
       -5369    5395
       -5370    5397
       -5311    5342
       -5312    5344
       -5254    5296
       -5255    5289
       -5172    5236
       -5859    5761
       -5927    5845
       -5787    5699
       -5860    5763
       -5727    5635
       -5788    5701
       -5728    5637
       -5667    5572
       -5486    5576
       -5487    5510
       -5429    5459
       -5430    5461
       -5373    5404
       -5374    5406
       -5315    5351
       -5316    5353
       -5257    5298
       -5864    5770
       -5791    5708
       -5865    5772
       -5731    5644
       -5792    5710
       -5670    5577
       -5732    5646
       -5671    5580
       -5529    5582
       -5490    5586
       -5491    5515
       -5433    5468
       -5434    5470
       -5377    5413
       -5378    5415
       -5319    5360
       -5320    5362
       -5258    5306
       -5868    5779
       -5795    5717
       -5735    5653
       -5796    5719
       -5674    5587
       -5736    5655
       -5675    5590
       -5531    5592
       -5494    5596
       -5495    5520
       -5437    5477
       -5438    5479
       -5381    5423
       -5739    5662
       -5678    5597
       -5679    5600
       -5533    5602
       -5498    5525
       -6393    6417
       -6395    6428
       -6397    6439
       -5550    5579
       -5552    5589
       -5554    5599
       -5556    5607
       -5989    5928
       -5990    5929
       -5993    5930
       -5994    5931
       -5997    5932
       -5998    5933
       -6000    5934
       -5138    5174
       -5139    5175
       -5140    5180
       -5141    5181
       -5142    5186
       -5143    5187
       -5144    5192
       -8068    8113
       -8207    8117
       -7966    7992
       -8025    8054
       -8026    8118
       -8070    8123
       -8210    8125
       -8266    8180
       -8211    8128
       -8267    8182
       -8324    8235
       -7849    7875
       -7908    7938
       -7909    7940
       -7969    8000
       -7970    8002
       -8029    8059
       -8030    8129
       -8072    8134
       -7851    7776
       -8214    8136
       -8270    8189
       -8215    8139
       -8327    8242
       -8271    8191
       -8392    8297
       -8328    8244
       -8393    8299
       -7802    7825
       -7852    7883
       -7853    7885
       -7912    7947
       -7913    7949
       -7973    8009
       -7974    8011
       -8033    8064
       -8034    8140
       -8074    8145
       -8395    8430
       -8461    8358
       -7744    7780
       -7855    7784
       -8218    8147
       -8274    8198
       -8219    8149
       -8331    8251
       -8275    8200
       -8397    8306
       -8332    8253
       -8398    8308
       -8463    6794
       -7745    7782
       -7805    7833
       -7746    7649
       -7856    7892
       -7857    7894
       -7916    7956
       -7917    7958
       -7977    8018
       -7978    8020
       -8037    8150
       -8464    6795
       -8400    8439
       -8465    8369
       -7747    7650
       -7748    7788
       -7859    7792
       -8278    8206
       -8335    8260
       -8402    8315
       -8336    8262
       -8403    8317
       -6867    6912
       -8467    6800
       -7749    7790
       -7808    7841
       -7614    7508
       -7750    7651
       -7860    7901
       -7861    7903
       -7920    7964
       -6943    6876
       -8468    6801
       -8405    8448
       -8469    8380
       -7615    7511
       -7751    7652
       -7752    7796
       -7862    7799
       -8407    8323
       -6945    6976
       -6868    6918
       -8471    6806
       -7753    7797
       -7618    7519
       -7754    7653
       -6946    6882
       -8472    6807
       -8473    8389
       -7619    7523
       -7755    7654
       -7756    7801
       -7006    7034
       -6948    6985
       -6949    6978
       -6869    6926
       -8474    6812
       -7552    7450
       -7622    7531
       -7757    7655
       -7553    7452
       -7482    7391
       -6950    6888
       -7623    7535
       -7124    7151
       -7067    7093
       -7068    7095
       -7009    7040
       -7010    7042
       -6952    6994
       -6953    6987
       -6870    6934
       -7557    7459
       -7625    7543
       -7485    7397
       -7558    7461
       -7425    7333
       -7486    7399
       -7426    7335
       -7365    7270
       -7184    7274
       -7185    7208
       -7127    7157
       -7128    7159
       -7071    7102
       -7072    7104
       -7013    7049
       -7014    7051
       -6955    6996
       -7562    7468
       -7489    7406
       -7563    7470
       -7429    7342
       -7490    7408
       -7368    7275
       -7430    7344
       -7369    7278
       -7227    7280
       -7188    7284
       -7189    7213
       -7131    7166
       -7132    7168
       -7075    7111
       -7076    7113
       -7017    7058
       -7018    7060
       -6956    7004
       -7566    7477
       -7493    7415
       -7433    7351
       -7494    7417
       -7372    7285
       -7434    7353
       -7373    7288
       -7229    7290
       -7192    7294
       -7193    7218
       -7135    7175
       -7136    7177
       -7079    7121
       -7437    7360
       -7376    7295
       -7377    7298
       -7231    7300
       -7196    7223
       -8091    8115
       -8093    8126
       -8095    8137
       -7248    7277
       -7250    7287
       -7252    7297
       -7254    7305
       -7687    7626
       -7688    7627
       -7691    7628
       -7692    7629
       -7695    7630
       -7696    7631
       -7698    7632
       -6836    6872
       -6837    6873
       -6838    6878
       -6839    6879
       -6840    6884
       -6841    6885
       -6842    6890
 $END
 $DATA
 EFMO 32 FRAGMENT MSN SINGLE PORE MODEL
 C1
 O.1-1    8
      N31 6

 C.1-1    6
      N31 6

 SI.1-1  14
      N31 6

 N.1-1    7
      N31 6

 H.1-1    1
      N31 6

 $END

 $FMOXYZ
        1	  O           -0.007713       15.086293      -33.852983
        2	  O           -0.020613       16.902393      -35.749683
        3	  O            0.329787       12.560693      -38.120183
        4	  O           -0.450213       14.312293      -36.335983
        5	  O           -2.306713       15.745593      -35.036583
        6	  O           -2.254013       13.095993      -37.884783
        7	  O           -0.580113       14.939293      -38.887183
        8	  O           -0.231713       16.937793      -40.523983
        9	  O            0.184087       13.397493      -43.028483
       10	  O           -1.423113       14.644293      -41.347383
       11	  O           -2.657513       16.368693      -39.694683
       12	  O           -2.425613       13.424193      -43.459083
       13	  O           -1.032413       15.696793      -43.712083
       14	  O           -0.084413       17.687393      -45.146783
       15	  O            0.601887       13.471493      -47.745183
       16	  O           -0.435213       15.255593      -46.196983
       17	  O           -2.526813       16.801093      -45.612183
       18	  O           -1.957913       14.083993      -48.024983
       19	  O           -0.085813       15.829893      -48.750583