 $offload rhf=.t. makefp=.t. $end
 $MP2 code=gpurimp2 $END
 $AUXBAS cabnam=ccd $END
! Change NGROUP to reflect number of nodes you are running on
! Functional groups are absorbed to MSN fragments
 $GDDI BALTYP=SLB ngroup=84 $END
! Change 1st and 2nd entry of NGRFMO(1) to reflect number of nodes you
! are running on
 $FMOPRP
    !NGRFMO(1)= 905, 5430, 0, 905, 5430,   0, 0, 0, 0, 0
    NPRINT=1
 $END
 $SCF DIRSCF=.TRUE. DAMP=.TRUE. SHIFT=.TRUE. NPUNCH=0 $END
 $SYSTEM MWORDS=1500 MEMDDI=1100000 $END
 $LOCAL CVGLOC=1.0E-6 FCORE=.TRUE. $END
! Threaded integrals
 $INTGRL INTOMP=1 $END
 $CONTRL SCFTYP=RHF RUNTYP=ENERGY NPRINT=-5
         MPLEVL=2 ISPHER=1
         LOCAL=RUEDNBRG MAXIT=50 $END
 $FMO
     NBODY=2
     IEFMO=1
     RESDIM=1
! UNCOMMENT THE LINE BELOW FOR POST-HF RUNS
     RCORSD=1
     MODEFM(1)=0, 16, 1, 1, 1
     RAFO(1)=.1, 1, 1
     MAXCAO=9
     MAXBND=603
     NLAYER=1
     NFRAG=84
     ICHARG(1)=
          0, 0, 0, 0, 0, 0, 0, 0, 0, 0,
          0, 0, 0, 0, 0, 0, 0, 0, 0, 0,
          0, 0, 0, 0, 0, 0, 0, 0
     FRGNAM(1)=
            MSN1,   MSN2,   MSN3,   MSN4,
            MSN5,   MSN6,   MSN7,   MSN8,   MSN9,
           MSN10,  MSN11,  MSN12,  MSN13,
           MSN14,  MSN15,  MSNFN,
           MSN17,  MSN18,  MSN19,  MSN20,  MSN21,
           MSN22,  MSN23,  MSN24,  MSN25,  MSN26,
           MSN27,  MSN28
      INDAT(1)=0
     1 -66 0
     67 -117 0
     118 -180 0
     181 -240 0
     241 -297 0
     298 -357 0
     358 -414 0
     415 -477 0
     478 -538 0
     539 -598 0
     599 -655 0
     656 -715 0
     716 -790 0
     791 -856 0
     857 -922 0
     923 -981 0
     982 -1027 0
     1028 -1080 0
     1081 -1140 0
     1141 -1197 0
     1198 -1257 0
     1258 -1318 0
     1319 -1381 0
     1382 -1438 0
     1439 -1498 0
     1499 -1555 0
     1556 -1636 0
     1637 -1698 0
     1699 -1764 0
     1765 -1815 0
     1816 -1878 0
     1879 -1938 0
     1939 -1995 0
     1996 -2055 0
     2056 -2112 0
     2113 -2175 0
     2176 -2236 0
     2237 -2296 0
     2297 -2353 0
     2354 -2413 0
     2414 -2488 0
     2489 -2554 0
     2555 -2620 0
     2621 -2679 0
     2680 -2725 0
     2726 -2778 0
     2779 -2838 0
     2839 -2895 0
     2896 -2955 0
     2956 -3016 0
     3017 -3079 0
     3080 -3136 0
     3137 -3196 0
     3197 -3253 0
     3254 -3334 0
     3335 -3396 0
     3397 -3462 0
     3463 -3513 0
     3514 -3576 0
     3577 -3636 0
     3637 -3693 0
     3694 -3753 0
     3754 -3810 0
     3811 -3873 0
     3874 -3934 0
     3935 -3994 0
     3995 -4051 0
     4052 -4111 0
     4112 -4186 0
     4187 -4252 0
     4253 -4318 0
     4319 -4377 0
     4378 -4423 0
     4424 -4476 0
     4477 -4536 0
     4537 -4593 0
     4594 -4653 0
     4654 -4714 0
     4715 -4777 0
     4778 -4834 0
     4835 -4894 0
     4895 -4951 0
     4952 -5032 0
     5033 -5094 0
 $END
 $FMOBND
       -1276    1321
       -1415    1325
       -1174    1200
       -1233    1262
       -1234    1326
       -1278    1331
       -1418    1333
       -1474    1388
       -1419    1336
       -1475    1390
       -1532    1443
       -1057    1083
       -1116    1146
       -1117    1148
       -1177    1208
       -1178    1210
       -1237    1267
       -1238    1337
       -1280    1342
       -1059    984
       -1422    1344
       -1478    1397
       -1423    1347
       -1535    1450
       -1479    1399
       -1600    1505
       -1536    1452
       -1601    1507
       -1010    1033
       -1060    1091
       -1061    1093
       -1120    1155
       -1121    1157
       -1181    1217
       -1182    1219
       -1241    1272
       -1242    1348
       -1282    1353
       -1603    1638
       -1669    1566
       -952    988
       -1063    992
       -1426    1355
       -1482    1406
       -1427    1357
       -1539    1459
       -1483    1408
       -1605    1514
       -1540    1461
       -1606    1516
       -1671    2
       -953    990
       -1013    1041
       -954    857
       -1064    1100
       -1065    1102
       -1124    1164
       -1125    1166
       -1185    1226
       -1186    1228
       -1245    1358
       -1672    3
       -1608    1647
       -1673    1577
       -955    858
       -956    996
       -1067    1000
       -1486    1414
       -1543    1468
       -1610    1523
       -1544    1470
       -1611    1525
       -75    120
       -1675    8
       -957    998
       -1016    1049
       -822    716
       -958    859
       -1068    1109
       -1069    1111
       -1128    1172
       -151    84
       -1676    9
       -1613    1656
       -1677    1588
       -823    719
       -959    860
       -960    1004
       -1070    1007
       -1615    1531
       -153    184
       -76    126
       -1679    14
       -961    1005
       -826    727
       -962    861
       -154    90
       -1680    15
       -1681    1597
       -827    731
       -963    862
       -964    1009
       -214    242
       -156    193
       -157    186
       -77    134
       -1682    20
       -760    658
       -830    739
       -965    863
       -761    660
       -690    599
       -158    96
       -831    743
       -332    359
       -275    301
       -276    303
       -217    248
       -218    250
       -160    202
       -161    195
       -78    142
       -765    667
       -833    751
       -693    605
       -766    669
       -633    541
       -694    607
       -634    543
       -573    478
       -392    482
       -393    416
       -335    365
       -336    367
       -279    310
       -280    312
       -221    257
       -222    259
       -163    204
       -770    676
       -697    614
       -771    678
       -637    550
       -698    616
       -576    483
       -638    552
       -577    486
       -435    488
       -396    492
       -397    421
       -339    374
       -340    376
       -283    319
       -284    321
       -225    266
       -226    268
       -164    212
       -774    685
       -701    623
       -641    559
       -702    625
       -580    493
       -642    561
       -581    496
       -437    498
       -400    502
       -401    426
       -343    383
       -344    385
       -287    329
       -645    568
       -584    503
       -585    506
       -439    508
       -404    431
       -1299    1323
       -1301    1334
       -1303    1345
       -456    485
       -458    495
       -460    505
       -462    513
       -895    834
       -896    835
       -899    836
       -900    837
       -903    838
       -904    839
       -906    840
       -44    80
       -45    81
       -46    86
       -47    87
       -48    92
       -49    93
       -50    98
       -2974    3019
       -3113    3023
       -2872    2898
       -2931    2960
       -2932    3024
       -2976    3029
       -3116    3031
       -3172    3086
       -3117    3034
       -3173    3088
       -3230    3141
       -2755    2781
       -2814    2844
       -2815    2846
       -2875    2906
       -2876    2908
       -2935    2965
       -2936    3035
       -2978    3040
       -2757    2682
       -3120    3042
       -3176    3095
       -3121    3045
       -3233    3148
       -3177    3097
       -3298    3203
       -3234    3150
       -3299    3205
       -2708    2731
       -2758    2789
       -2759    2791
       -2818    2853
       -2819    2855
       -2879    2915
       -2880    2917
       -2939    2970
       -2940    3046
       -2980    3051
       -3301    3336
       -3367    3264
       -2650    2686
       -2761    2690
       -3124    3053
       -3180    3104
       -3125    3055
       -3237    3157
       -3181    3106
       -3303    3212
       -3238    3159
       -3304    3214
       -3369    1700
       -2651    2688
       -2711    2739
       -2652    2555
       -2762    2798
       -2763    2800
       -2822    2862
       -2823    2864
       -2883    2924
       -2884    2926
       -2943    3056
       -3370    1701
       -3306    3345
       -3371    3275
       -2653    2556
       -2654    2694
       -2765    2698
       -3184    3112
       -3241    3166
       -3308    3221
       -3242    3168
       -3309    3223
       -1773    1818
       -3373    1706
       -2655    2696
       -2714    2747
       -2520    2414
       -2656    2557
       -2766    2807
       -2767    2809
       -2826    2870
       -1849    1782
       -3374    1707
       -3311    3354
       -3375    3286
       -2521    2417
       -2657    2558
       -2658    2702
       -2768    2705
       -3313    3229
       -1851    1882
       -1774    1824
       -3377    1712
       -2659    2703
       -2524    2425
       -2660    2559
       -1852    1788
       -3378    1713
       -3379    3295
       -2525    2429
       -2661    2560
       -2662    2707
       -1912    1940
       -1854    1891
       -1855    1884
       -1775    1832
       -3380    1718
       -2458    2356
       -2528    2437
       -2663    2561
       -2459    2358
       -2388    2297
       -1856    1794
       -2529    2441
       -2030    2057
       -1973    1999
       -1974    2001
       -1915    1946
       -1916    1948
       -1858    1900
       -1859    1893
       -1776    1840
       -2463    2365
       -2531    2449
       -2391    2303
       -2464    2367
       -2331    2239
       -2392    2305
       -2332    2241
       -2271    2176
       -2090    2180
       -2091    2114
       -2033    2063
       -2034    2065
       -1977    2008
       -1978    2010
       -1919    1955
       -1920    1957
       -1861    1902
       -2468    2374
       -2395    2312
       -2469    2376
       -2335    2248
       -2396    2314
       -2274    2181
       -2336    2250
       -2275    2184
       -2133    2186
       -2094    2190
       -2095    2119
       -2037    2072
       -2038    2074
       -1981    2017
       -1982    2019
       -1923    1964
       -1924    1966
       -1862    1910
       -2472    2383
       -2399    2321
       -2339    2257
       -2400    2323
       -2278    2191
       -2340    2259
       -2279    2194
       -2135    2196
       -2098    2200
       -2099    2124
       -2041    2081
       -2042    2083
       -1985    2027
       -2343    2266
       -2282    2201
       -2283    2204
       -2137    2206
       -2102    2129
       -2997    3021
       -2999    3032
       -3001    3043
       -2154    2183
       -2156    2193
       -2158    2203
       -2160    2211
       -2593    2532
       -2594    2533
       -2597    2534
       -2598    2535
       -2601    2536
       -2602    2537
       -2604    2538
       -1742    1778
       -1743    1779
       -1744    1784
       -1745    1785
       -1746    1790
       -1747    1791
       -1748    1796
       -4672    4717
       -4811    4721
       -4570    4596
       -4629    4658
       -4630    4722
       -4674    4727
       -4814    4729
       -4870    4784
       -4815    4732
       -4871    4786
       -4928    4839
       -4453    4479
       -4512    4542
       -4513    4544
       -4573    4604
       -4574    4606
       -4633    4663
       -4634    4733
       -4676    4738
       -4455    4380
       -4818    4740
       -4874    4793
       -4819    4743
       -4931    4846
       -4875    4795
       -4996    4901
       -4932    4848
       -4997    4903
       -4406    4429
       -4456    4487
       -4457    4489
       -4516    4551
       -4517    4553
       -4577    4613
       -4578    4615
       -4637    4668
       -4638    4744
       -4678    4749
       -4999    5034
       -5065    4962
       -4348    4384
       -4459    4388
       -4822    4751
       -4878    4802
       -4823    4753
       -4935    4855
       -4879    4804
       -5001    4910
       -4936    4857
       -5002    4912
       -5067    3398
       -4349    4386
       -4409    4437
       -4350    4253
       -4460    4496
       -4461    4498
       -4520    4560
       -4521    4562
       -4581    4622
       -4582    4624
       -4641    4754
       -5068    3399
       -5004    5043
       -5069    4973
       -4351    4254
       -4352    4392
       -4463    4396
       -4882    4810
       -4939    4864
       -5006    4919
       -4940    4866
       -5007    4921
       -3471    3516
       -5071    3404
       -4353    4394
       -4412    4445
       -4218    4112
       -4354    4255
       -4464    4505
       -4465    4507
       -4524    4568
       -3547    3480
       -5072    3405
       -5009    5052
       -5073    4984
       -4219    4115
       -4355    4256
       -4356    4400
       -4466    4403
       -5011    4927
       -3549    3580
       -3472    3522
       -5075    3410
       -4357    4401
       -4222    4123
       -4358    4257
       -3550    3486
       -5076    3411
       -5077    4993
       -4223    4127
       -4359    4258
       -4360    4405
       -3610    3638
       -3552    3589
       -3553    3582
       -3473    3530
       -5078    3416
       -4156    4054
       -4226    4135
       -4361    4259
       -4157    4056
       -4086    3995
       -3554    3492
       -4227    4139
       -3728    3755
       -3671    3697
       -3672    3699
       -3613    3644
       -3614    3646
       -3556    3598
       -3557    3591
       -3474    3538
       -4161    4063
       -4229    4147
       -4089    4001
       -4162    4065
       -4029    3937
       -4090    4003
       -4030    3939
       -3969    3874
       -3788    3878
       -3789    3812
       -3731    3761
       -3732    3763
       -3675    3706
       -3676    3708
       -3617    3653
       -3618    3655
       -3559    3600
       -4166    4072
       -4093    4010
       -4167    4074
       -4033    3946
       -4094    4012
       -3972    3879
       -4034    3948
       -3973    3882
       -3831    3884
       -3792    3888
       -3793    3817
       -3735    3770
       -3736    3772
       -3679    3715
       -3680    3717
       -3621    3662
       -3622    3664
       -3560    3608
       -4170    4081
       -4097    4019
       -4037    3955
       -4098    4021
       -3976    3889
       -4038    3957
       -3977    3892
       -3833    3894
       -3796    3898
       -3797    3822
       -3739    3779
       -3740    3781
       -3683    3725
       -4041    3964
       -3980    3899
       -3981    3902
       -3835    3904
       -3800    3827
       -4695    4719
       -4697    4730
       -4699    4741
       -3852    3881
       -3854    3891
       -3856    3901
       -3858    3909
       -4291    4230
       -4292    4231
       -4295    4232
       -4296    4233
       -4299    4234
       -4300    4235
       -4302    4236
       -3440    3476
       -3441    3477
       -3442    3482
       -3443    3483
       -3444    3488
       -3445    3489
       -3446    3494
 $END
 $DATA
 EFMO 32 FRAGMENT MSN SINGLE PORE MODEL
 C1
 O.1-1    8
      N31 6

 C.1-1    6
      N31 6

 SI.1-1  14
      N31 6

 N.1-1    7
      N31 6

 H.1-1    1
      N31 6

 $END

 $FMOXYZ
    O     8.0    -0.0260 15.1460 10.1307
    O     8.0    -0.0389 16.9621 8.2340
    O     8.0    0.3115 12.6204 5.8635
    O     8.0    -0.4685 14.3720 7.6477
    O     8.0    -2.3250 15.8053 8.9471
    O     8.0    -2.2723 13.1557 6.0989
    O     8.0    -0.5984 14.9990 5.0965
    O     8.0    -0.2500 16.9975 3.4597
    O     8.0    0.1658 13.4572 0.9552
    O     8.0    -1.4414 14.7040 2.6363
    O     8.0    -2.6758 16.4284 4.2890
    O     8.0    -2.4439 13.4839 0.5246
    O     8.0    -1.0507 15.7565 0.2716
    O     8.0    -0.1027 17.7471 -1.1631
    O     8.0    0.5836 13.5312 -3.7615
    O     8.0    -0.4535 15.3153 -2.2133
    O     8.0    -2.5451 16.8608 -1.6285
    O     8.0    -1.9762 14.1437 -4.0413
    O     8.0    -0.1041 15.8896 -4.7669
    O     8.0    0.4840 17.9488 -6.2102
    O     8.0    -0.6871 15.7866 -7.3506
    O     8.0    -2.0591 17.4279 -5.7263
   Si    14.0    -0.7175 15.5744 8.7199
   Si    14.0    -0.7649 13.7767 6.1729
   Si    14.0    -1.2371 15.7761 3.8466
   Si    14.0    -1.1763 14.3386 1.0840
   Si    14.0    -1.0337 16.4239 -1.1862
   Si    14.0    -0.4916 14.7157 -3.7035
   Si    14.0    -0.5908 16.7577 -6.0203
    O     8.0    -4.3355 17.3497 9.6844
    O     8.0    -4.2504 11.3919 6.0406
    O     8.0    -3.2921 17.6369 7.2349
    O     8.0    -2.7182 11.7477 3.8538
    O     8.0    -4.9833 17.6420 4.8649
    O     8.0    -3.6308 11.0170 0.0969
    O     8.0    -3.1992 18.8633 3.2869
    O     8.0    -2.1034 12.2489 -1.8738
    O     8.0    -3.5096 18.4827 0.2168
    O     8.0    -3.4250 12.0377 -4.6017
    O     8.0    -3.3620 19.3100 -2.3386
    O     8.0    -1.7426 13.0931 -6.4596
    O     8.0    -2.5361 19.9204 -4.9999
    O     8.0    -2.3133 19.2611 -7.6282
   Si    14.0    -3.6559 16.5438 8.4280
   Si    14.0    -3.3979 12.4848 5.1615
   Si    14.0    -3.8309 17.3951 3.7258
   Si    14.0    -3.1372 12.6187 -0.6506
   Si    14.0    -3.6302 18.0082 -1.3474
   Si    14.0    -2.7868 13.4155 -5.2204
   Si    14.0    -2.8452 18.7735 -6.1288
    H     1.0    -0.5279 14.6000 10.7190
    H     1.0    -1.1813 14.9786 -7.2471
    H     1.0    -3.9576 18.1919 9.8973
    H     1.0    -5.1986 11.3767 5.9516
    H     1.0    -2.4037 17.6634 6.8916
    H     1.0    -1.7685 11.7169 3.8021
    H     1.0    -4.7278 17.5196 5.7734
    H     1.0    -2.5084 18.8847 2.6310
    H     1.0    -2.4214 12.3429 -2.7666
    H     1.0    -4.0866 18.0731 0.8541
    H     1.0    -4.3685 11.9965 -4.4785
    H     1.0    -3.6167 19.2450 -3.2530
    H     1.0    -0.9196 12.6648 -6.2400
    H     1.0    -1.6485 19.9728 -4.6586
    H     1.0    -1.3719 19.2754 -7.7785
    H     1.0    -4.0538 10.4623 -0.5771
    O     8.0    -7.2547 17.5008 10.2543
    O     8.0    -9.3112 17.8669 8.5382
    O     8.0    -7.1005 18.9953 3.2425
    O     8.0    -9.1066 18.5214 1.5321
    O     8.0    -7.8493 19.3979 -1.3667
    O     8.0    -9.5782 18.7698 -3.3460
    O     8.0    -8.1955 20.0127 -5.7232
    O     8.0    -9.3387 19.2868 -8.0379
   Si    14.0    -8.1657 16.8157 9.0917
   Si    14.0    -8.0004 17.8314 2.5424
   Si    14.0    -8.4893 18.1891 -2.2523
   Si    14.0    -8.3377 18.8131 -6.8165
    O     8.0    -6.7264 13.7518 8.0875
    O     8.0    -4.6938 15.4348 7.8361
    O     8.0    -4.4007 13.6532 4.6006
    O     8.0    -6.3274 15.0018 5.7683
    O     8.0    -7.1956 16.3658 7.8483
    O     8.0    -6.8579 12.7093 4.5108
    O     8.0    -6.2553 14.8144 3.1035
    O     8.0    -4.5066 16.6884 2.4236
    O     8.0    -4.4682 13.3876 -1.2197
    O     8.0    -5.3856 14.9632 0.6371
    O     8.0    -7.0227 16.8562 1.6539
    O     8.0    -6.8904 12.9525 -0.3535
    O     8.0    -6.3994 15.1354 -1.7986
    O     8.0    -5.1034 17.3943 -1.6414
    O     8.0    -3.9697 14.4246 -5.7374
    O     8.0    -5.1612 15.9943 -3.9434
    O     8.0    -7.3200 17.3245 -3.0160
    O     8.0    -6.5334 14.0644 -5.1837
    O     8.0    -5.7699 16.1954 -6.5176
    O     8.0    -4.4491 18.4661 -6.2111
    O     8.0    -4.6904 17.4128 -8.6247
    O     8.0    -6.8597 18.4275 -7.4172
   Si    14.0    -6.2186 15.1341 7.3866
   Si    14.0    -5.9518 14.0564 4.5162
   Si    14.0    -5.7883 15.8239 1.9519
   Si    14.0    -5.7940 14.1121 -0.6705
   Si    14.0    -5.9885 16.4578 -2.6153
   Si    14.0    -5.3377 15.1598 -5.3224
   Si    14.0    -5.4502 17.6270 -7.1756
    H     1.0    -6.3103 17.4603 10.1382
    H     1.0    -10.1462 17.5129 8.2450
    H     1.0    -6.3827 18.7124 3.8017
    H     1.0    -9.9296 18.0558 1.4099
    H     1.0    -7.9058 19.3162 -0.4201
    H     1.0    -9.2155 19.1135 -4.1574
    H     1.0    -7.7663 20.8050 -6.0116
    H     1.0    -10.0947 18.7372 -8.2203
    H     1.0    -7.4841 13.8287 8.6578
    H     1.0    -3.8747 17.8852 -8.7476
    O     8.0    -7.3275 11.2359 6.6259
    O     8.0    -9.9787 13.1524 10.3626
    O     8.0    -8.8668 15.4795 9.6871
    O     8.0    -8.3509 10.5335 4.2274
    O     8.0    -9.3408 12.6328 5.5338
    O     8.0    -9.7732 13.8311 7.8368
    O     8.0    -6.5436 11.5167 1.8963
    O     8.0    -9.6880 15.2656 5.5578
    O     8.0    -8.7121 16.9541 3.7121
    O     8.0    -8.4337 10.8255 0.1915
    O     8.0    -8.6365 13.0874 1.6503
    O     8.0    -10.1047 14.7666 3.0414
    O     8.0    -11.4869 15.1510 9.4601
    O     8.0    -13.2655 17.1238 9.6307
    O     8.0    -6.1687 12.0819 -3.4191
    O     8.0    -9.5617 15.3206 0.5058
    O     8.0    -9.2474 17.2033 -1.2260
    O     8.0    -11.8888 16.7306 7.3450
    O     8.0    -7.3333 11.5837 -5.7632
    O     8.0    -8.6310 13.0033 -3.9225
    O     8.0    -9.4368 14.6770 -2.0541
    O     8.0    -11.3222 16.8322 4.1827
    O     8.0    -12.8220 18.9670 3.7102
    O     8.0    -9.4051 15.4562 -4.5799
    O     8.0    -8.9937 17.5449 -6.0551
    O     8.0    -11.8563 17.5133 1.6585
    O     8.0    -8.5849 15.1004 -7.0873
    O     8.0    -11.5821 16.0007 -1.1448
    O     8.0    -12.3270 18.5155 -1.1131
    O     8.0    -12.1020 17.2186 -3.4647
    O     8.0    -11.0731 15.9237 -6.5824
    O     8.0    -13.0515 17.6530 -6.2426
    O     8.0    -11.7127 17.5653 -8.5899
   Si    14.0    -7.9876 11.7761 5.2385
   Si    14.0    -10.0318 14.4141 9.3366
   Si    14.0    -10.1117 13.8472 6.2555
   Si    14.0    -7.6313 12.1006 0.8340
   Si    14.0    -9.9289 15.9673 4.1248
   Si    14.0    -9.8469 14.1387 1.5805
   Si    14.0    -12.5906 15.9916 8.6568
   Si    14.0    -7.1628 12.6842 -4.5610
   Si    14.0    -9.9612 15.7813 -0.9781
   Si    14.0    -9.6558 14.1961 -3.5815
   Si    14.0    -12.4437 17.4542 3.2096
   Si    14.0    -9.5154 16.0158 -6.0810
   Si    14.0    -12.5422 17.0759 -1.8693
   Si    14.0    -12.2924 16.6722 -7.3164
    H     1.0    -7.1678 11.8878 7.3024
    H     1.0    -10.1409 13.3250 11.2789
    H     1.0    -7.9888 10.5797 3.3473
    H     1.0    -6.1446 12.1321 2.5031
    H     1.0    -9.1820 10.9714 -0.3791
    H     1.0    -14.1932 17.2854 9.4985
    H     1.0    -6.4614 12.1147 -2.5148
    H     1.0    -11.9220 16.2918 6.5006
    H     1.0    -8.1549 11.5815 -6.2447
    H     1.0    -12.1038 19.5559 3.8951
    H     1.0    -12.4630 17.6021 0.9325
    H     1.0    -7.6419 15.1562 -6.9647
    H     1.0    -11.5749 19.0258 -1.3868
    H     1.0    -11.1838 17.4153 -3.6358
    H     1.0    -12.9488 17.4533 -5.3167
    H     1.0    -12.2703 17.6410 -9.3513
    O     8.0    -11.2944 11.0984 8.4804
    O     8.0    -13.7935 11.8908 9.0768
    O     8.0    -13.1113 11.4285 6.5319
    O     8.0    -11.7279 13.6303 6.0395
    O     8.0    -16.0399 13.6565 8.4108
    O     8.0    -13.7615 14.9549 8.2015
    O     8.0    -11.1196 9.3144 3.8339
    O     8.0    -11.9722 11.7977 4.1695
    O     8.0    -14.0880 13.2362 4.8261
    O     8.0    -15.4543 15.0421 6.2052
    O     8.0    -16.0169 16.3549 8.5024
    O     8.0    -11.5028 10.8737 1.7019
    O     8.0    -11.1993 13.3777 1.0858
    O     8.0    -15.7646 14.8506 3.5869
    O     8.0    -13.7622 16.5050 3.2903
    O     8.0    -10.1156 9.4684 -2.1057
    O     8.0    -11.1835 11.5572 -0.8642
    O     8.0    -13.4317 12.1993 0.4669
    O     8.0    -14.1359 14.5251 1.5630
    O     8.0    -15.8272 16.6376 1.5891
    O     8.0    -11.6702 11.1485 -3.4829
    O     8.0    -11.2076 13.7057 -3.7555
    O     8.0    -14.4167 14.1344 -1.0328
    O     8.0    -14.1065 16.6339 -1.7459
    O     8.0    -9.7801 12.3704 -7.1878
    O     8.0    -12.0698 12.3108 -5.8392
    O     8.0    -13.7117 12.8451 -3.8281
    O     8.0    -15.3207 14.9054 -3.3703
    O     8.0    -16.5608 15.6940 -1.1240
    O     8.0    -12.1263 12.1339 -8.5022
    O     8.0    -14.4300 14.4191 -5.8008
    O     8.0    -13.3520 15.5574 -7.8670
    O     8.0    -14.7573 13.3166 -8.1985
   Si    14.0    -12.8699 10.9620 8.0884
   Si    14.0    -12.7354 12.5250 5.4142
   Si    14.0    -15.3321 15.0024 7.8262
   Si    14.0    -12.0429 10.5023 3.2051
   Si    14.0    -15.4903 14.0070 4.9657
   Si    14.0    -11.8153 11.9808 0.5809
   Si    14.0    -14.8725 15.6344 2.5029
   Si    14.0    -11.4129 10.4490 -2.0237
   Si    14.0    -14.4763 13.4167 0.4356
   Si    14.0    -12.1581 12.4878 -4.2219
   Si    14.0    -15.0942 15.3553 -1.8246
   Si    14.0    -11.2803 11.7378 -7.1286
   Si    14.0    -14.9294 13.7295 -4.4061
   Si    14.0    -14.6485 14.7304 -7.3571
    H     1.0    -11.0077 11.8597 8.9747
    H     1.0    -13.9652 12.7935 8.8209
    H     1.0    -16.4660 13.0548 7.8086
    H     1.0    -10.2602 9.5756 4.1519
    H     1.0    -16.9206 16.2854 8.7756
    H     1.0    -10.2232 8.6458 -2.5730
    H     1.0    -15.9387 17.5248 1.9009
    H     1.0    -9.6931 13.3169 -7.2517
    H     1.0    -16.5313 15.9887 -0.2186
    H     1.0    -12.7456 12.8559 -8.4468
    H     1.0    -15.1922 12.5751 -7.7875
    O     8.0    -16.0158 15.6466 -7.5570
    H     1.0    -15.9689 16.5537 -7.2870
    O     8.0    -13.9506 6.8234 8.5511
    O     8.0    -13.3172 9.4043 8.2816
    O     8.0    -12.4492 6.6188 4.0502
    O     8.0    -13.5159 7.8481 6.1474
    O     8.0    -15.7079 8.5258 7.5089
    O     8.0    -16.5915 10.8347 8.4740
    O     8.0    -14.7845 7.8729 3.8083
    O     8.0    -13.6071 10.0626 3.0698
    O     8.0    -16.6026 10.4060 5.8359
    O     8.0    -16.6998 12.9570 5.2449
    O     8.0    -12.6865 5.5493 1.1460
    O     8.0    -13.6778 8.0044 1.4393
    O     8.0    -15.9268 9.3501 1.8927
    O     8.0    -17.1422 11.1567 3.3476
    O     8.0    -18.9536 11.5638 5.2839
    O     8.0    -13.2677 7.1022 -0.9877
    O     8.0    -12.7234 9.5799 -1.6192
    O     8.0    -17.7562 10.9105 0.8025
    O     8.0    -15.9754 12.8277 0.6636
    O     8.0    -10.9162 6.6677 -3.2808
    O     8.0    -13.2830 7.8074 -3.5184
    O     8.0    -15.1931 8.7312 -1.8634
    O     8.0    -16.1902 11.1329 -1.3202
    O     8.0    -18.1035 12.9862 -0.9198
    O     8.0    -11.5730 7.9699 -5.5204
    O     8.0    -11.2008 10.1116 -7.0155
    O     8.0    -15.9653 10.3045 -3.8518
    O     8.0    -16.2228 12.7725 -4.6694
    O     8.0    -12.1245 7.8434 -8.1160
    O     8.0    -13.6743 9.2783 -6.4783
    O     8.0    -15.7704 10.8795 -6.4329
    O     8.0    -18.1697 10.9872 -5.2123
    O     8.0    -14.5836 10.3488 -8.7334
   Si    14.0    -14.1166 8.1572 7.6283
   Si    14.0    -13.8400 6.9916 4.8167
   Si    14.0    -16.7847 9.7006 7.3062
   Si    14.0    -14.5212 8.8360 2.5536
   Si    14.0    -17.3357 11.5097 4.9224
   Si    14.0    -13.6968 6.6704 0.5314
   Si    14.0    -17.3323 10.0808 2.1567
   Si    14.0    -13.6205 8.2979 -2.0035
   Si    14.0    -17.0319 11.9515 -0.1906
   Si    14.0    -12.1277 7.0037 -4.3192
   Si    14.0    -16.2560 9.8550 -2.3013
   Si    14.0    -12.1281 8.8047 -6.7763
   Si    14.0    -16.5357 11.2283 -5.0381
   Si    14.0    -15.0127 9.7160 -7.2601
    H     1.0    -13.3360 6.8632 9.2702
    H     1.0    -11.8676 7.3537 3.8755
    H     1.0    -15.7124 10.9698 8.8170
    H     1.0    -12.6522 5.4926 2.0959
    H     1.0    -19.3640 10.7594 5.5848
    H     1.0    -11.1022 6.0361 -2.5979
    H     1.0    -17.7614 13.8355 -1.1833
    H     1.0    -12.8871 7.2850 -8.2366
    H     1.0    -18.6726 11.6989 -5.5831
    H     1.0    -13.6832 10.6400 -8.8409
    O     8.0    -14.8672 3.9627 8.0334
    O     8.0    -17.5126 4.1843 7.8141
    O     8.0    -16.0416 3.4844 5.6841
    O     8.0    -14.6576 5.6469 5.2181
    O     8.0    -20.0456 7.0366 7.4646
    O     8.0    -18.2780 9.0433 7.3702
    O     8.0    -13.9102 2.2808 1.4469
    O     8.0    -14.9413 3.8784 3.2919
    O     8.0    -17.0345 5.3290 4.0307
    O     8.0    -18.2411 7.1464 5.5256
    O     8.0    -20.2326 8.9193 5.5351
    O     8.0    -16.1529 3.6676 0.9185
    O     8.0    -15.2046 6.0625 0.4634
    O     8.0    -19.2608 6.5320 3.1559
    O     8.0    -18.4623 8.9704 2.5442
    O     8.0    -12.7651 3.1197 -0.9267
    O     8.0    -15.1008 4.2284 -1.4427
    O     8.0    -17.3984 5.3006 -0.8252
    O     8.0    -18.6217 7.0776 0.6596
    O     8.0    -20.8531 8.1230 1.7443
    O     8.0    -13.5163 3.5959 -3.4459
    O     8.0    -12.7579 5.6315 -4.9442
    O     8.0    -19.1116 6.9467 -1.9493
    O     8.0    -17.7411 9.1919 -2.2287
    O     8.0    -12.8802 1.5409 -6.4945
    O     8.0    -14.3393 3.7074 -5.9561
    O     8.0    -15.2773 5.4368 -4.1840
    O     8.0    -17.1953 7.1858 -3.7928
    O     8.0    -19.5090 8.4724 -4.1137
    O     8.0    -12.9173 3.6568 -8.1753
    O     8.0    -16.7635 6.2069 -6.2525
    O     8.0    -16.0069 8.4345 -7.4460
    O     8.0    -14.5765 6.2150 -7.8124
    O     8.0    -17.0571 6.4089 -8.8666
   Si    14.0    -16.1938 3.3449 7.3139
   Si    14.0    -15.6763 4.5790 4.5640
   Si    14.0    -19.2019 8.0393 6.4962
   Si    14.0    -15.2879 2.8803 2.0716
   Si    14.0    -18.4516 5.9511 4.4578
   Si    14.0    -15.9738 4.8068 -0.2005
   Si    14.0    -19.2822 7.6733 2.0240
   Si    14.0    -14.0270 3.1398 -1.9574
   Si    14.0    -18.7837 6.0719 -0.5977
   Si    14.0    -13.9540 4.5817 -4.6377
   Si    14.0    -18.4035 7.9399 -3.0009
   Si    14.0    -13.8008 2.7292 -7.1227
   Si    14.0    -16.7453 5.8939 -4.6448
   Si    14.0    -16.0940 6.8219 -7.5788
    H     1.0    -14.7154 4.9004 7.9551
    H     1.0    -18.1402 4.4461 7.1459
    H     1.0    -20.4093 6.2528 7.0704
    H     1.0    -13.9737 1.7484 0.6618
    H     1.0    -20.3224 8.6473 4.6286
    H     1.0    -12.7885 3.7125 -0.1796
    H     1.0    -21.0713 8.4364 0.8777
    H     1.0    -13.3138 0.7228 -6.2713
    H     1.0    -19.2382 9.2226 -4.6341
    H     1.0    -11.9768 3.5557 -8.1498
    H     1.0    -14.4124 5.3008 -7.6025
    H     1.0    -17.5104 5.5760 -8.8265
    O     8.0    -16.5710 -0.8656 8.1496
    O     8.0    -16.3650 1.7657 7.6961
    O     8.0    -16.3713 -2.4330 5.2802
    O     8.0    -16.9647 0.0857 5.7118
    O     8.0    -18.7511 0.5403 7.6225
    O     8.0    -19.4834 2.4819 9.2388
    O     8.0    -16.7378 -0.8171 3.1968