 $CONTRL runtyp=energy
         local=ruednbrg maxit=100 $END
 $SYSTEM mwords=11000 
 timlim=100000000 $END
! $GDDI ngroup=1 $END
 $SCF dirscf=.true. npunch=0 $END
 $LOCAL CVGLOC=1.0E-6 FCORE=.TRUE. $END
 $FMOPRP
!    NGRFMO(1)= 1, 1, 0, 0, 0,   0, 0, 0, 0, 0
! warning: gigantic output - hundreds of Mb order of magnitude, for pure text
! suggest nprint = 1 to reduce; don't go to 3 to keep timings (2 is grey zone, test and check)
! might want to keep nprint as previous benchmarks for pure comparison though
    nprint=0
 $END
 $FMO
     nbody=2
     iefmo=1
     resdim=0.5
! uncomment the line below for post-SCF methods
!     rcorsd=0.5
     modefm(1)=0, 0, 0, 1, 1
     RAFO(1)=.1, 1, 1
     MAXCAO=9
     MAXBND=94
     NLAYER=1
     NFRAG=1016
! go with default zero charges for simplicity
!     ICHARG(1)=
!          0, 0, 0, 0, 0, 0
     FRGNAM(1)=
            w0001,  w0002,  w0003,  w0004,  w0005,
            w0006,  w0007,  w0008,  w0009,  w0010,
            w0011,  w0012,  w0013,  w0014,  w0015,
            w0016,  w0017,  w0018,  w0019,  w0020,
            w0021,  w0022,  w0023,  w0024,  w0025,
            w0026,  w0027,  w0028,  w0029,  w0030,
            w0031,  w0032,  w0033,  w0034,  w0035,
            w0036,  w0037,  w0038,  w0039,  w0040,
            w0041,  w0042,  w0043,  w0044,  w0045,
            w0046,  w0047,  w0048,  w0049,  w0050,
            w0051,  w0052,  w0053,  w0054,  w0055,
            w0056,  w0057,  w0058,  w0059,  w0060,
            w0061,  w0062,  w0063,  w0064,  w0065,
            w0066,  w0067,  w0068,  w0069,  w0070,
            w0071,  w0072,  w0073,  w0074,  w0075,
            w0076,  w0077,  w0078,  w0079,  w0080,
            w0081,  w0082,  w0083,  w0084,  w0085,
            w0086,  w0087,  w0088,  w0089,  w0090,
            w0091,  w0092,  w0093,  w0094,  w0095,
            w0096,  w0097,  w0098,  w0099,  w0100,
            w0101,  w0102,  w0103,  w0104,  w0105,
            w0106,  w0107,  w0108,  w0109,  w0110,
            w0111,  w0112,  w0113,  w0114,  w0115,
            w0116,  w0117,  w0118,  w0119,  w0120,
            w0121,  w0122,  w0123,  w0124,  w0125,
            w0126,  w0127,  w0128,  w0129,  w0130,
            w0131,  w0132,  w0133,  w0134,  w0135,
            w0136,  w0137,  w0138,  w0139,  w0140,
            w0141,  w0142,  w0143,  w0144,  w0145,
            w0146,  w0147,  w0148,  w0149,  w0150,
            w0151,  w0152,  w0153,  w0154,  w0155,
            w0156,  w0157,  w0158,  w0159,  w0160,
            w0161,  w0162,  w0163,  w0164,  w0165,
            w0166,  w0167,  w0168,  w0169,  w0170,
            w0171,  w0172,  w0173,  w0174,  w0175,
            w0176,  w0177,  w0178,  w0179,  w0180,
            w0181,  w0182,  w0183,  w0184,  w0185,
            w0186,  w0187,  w0188,  w0189,  w0190,
            w0191,  w0192,  w0193,  w0194,  w0195,
            w0196,  w0197,  w0198,  w0199,  w0200,
            w0201,  w0202,  w0203,  w0204,  w0205,
            w0206,  w0207,  w0208,  w0209,  w0210,
            w0211,  w0212,  w0213,  w0214,  w0215,
            w0216,  w0217,  w0218,  w0219,  w0220,
            w0221,  w0222,  w0223,  w0224,  w0225,
            w0226,  w0227,  w0228,  w0229,  w0230,
            w0231,  w0232,  w0233,  w0234,  w0235,
            w0236,  w0237,  w0238,  w0239,  w0240,
            w0241,  w0242,  w0243,  w0244,  w0245,
            w0246,  w0247,  w0248,  w0249,  w0250,
            w0251,  w0252,  w0253,  w0254,  w0255,
            w0256,  w0257,  w0258,  w0259,  w0260,
            w0261,  w0262,  w0263,  w0264,  w0265,
            w0266,  w0267,  w0268,  w0269,  w0270,
            w0271,  w0272,  w0273,  w0274,  w0275,
            w0276,  w0277,  w0278,  w0279,  w0280,
            w0281,  w0282,  w0283,  w0284,  w0285,
            w0286,  w0287,  w0288,  w0289,  w0290,
            w0291,  w0292,  w0293,  w0294,  w0295,
            w0296,  w0297,  w0298,  w0299,  w0300,
            w0301,  w0302,  w0303,  w0304,  w0305,
            w0306,  w0307,  w0308,  w0309,  w0310,
            w0311,  w0312,  w0313,  w0314,  w0315,
            w0316,  w0317,  w0318,  w0319,  w0320,
            w0321,  w0322,  w0323,  w0324,  w0325,
            w0326,  w0327,  w0328,  w0329,  w0330,
            w0331,  w0332,  w0333,  w0334,  w0335,
            w0336,  w0337,  w0338,  w0339,  w0340,
            w0341,  w0342,  w0343,  w0344,  w0345,
            w0346,  w0347,  w0348,  w0349,  w0350,
            w0351,  w0352,  w0353,  w0354,  w0355,
            w0356,  w0357,  w0358,  w0359,  w0360,
            w0361,  w0362,  w0363,  w0364,  w0365,
            w0366,  w0367,  w0368,  w0369,  w0370,
            w0371,  w0372,  w0373,  w0374,  w0375,
            w0376,  w0377,  w0378,  w0379,  w0380,
            w0381,  w0382,  w0383,  w0384,  w0385,
            w0386,  w0387,  w0388,  w0389,  w0390,
            w0391,  w0392,  w0393,  w0394,  w0395,
            w0396,  w0397,  w0398,  w0399,  w0400,
            w0401,  w0402,  w0403,  w0404,  w0405,
            w0406,  w0407,  w0408,  w0409,  w0410,
            w0411,  w0412,  w0413,  w0414,  w0415,
            w0416,  w0417,  w0418,  w0419,  w0420,
            w0421,  w0422,  w0423,  w0424,  w0425,
            w0426,  w0427,  w0428,  w0429,  w0430,
            w0431,  w0432,  w0433,  w0434,  w0435,
            w0436,  w0437,  w0438,  w0439,  w0440,
            w0441,  w0442,  w0443,  w0444,  w0445,
            w0446,  w0447,  w0448,  w0449,  w0450,
            w0451,  w0452,  w0453,  w0454,  w0455,
            w0456,  w0457,  w0458,  w0459,  w0460,
            w0461,  w0462,  w0463,  w0464,  w0465,
            w0466,  w0467,  w0468,  w0469,  w0470,
            w0471,  w0472,  w0473,  w0474,  w0475,
            w0476,  w0477,  w0478,  w0479,  w0480,
            w0481,  w0482,  w0483,  w0484,  w0485,
            w0486,  w0487,  w0488,  w0489,  w0490,
            w0491,  w0492,  w0493,  w0494,  w0495,
            w0496,  w0497,  w0498,  w0499,  w0500,
            w0501,  w0502,  w0503,  w0504,  w0505,
            w0506,  w0507,  w0508,  w0509,  w0510,
            w0511,  w0512,  w0513,  w0514,  w0515,
            w0516,  w0517,  w0518,  w0519,  w0520,
            w0521,  w0522,  w0523,  w0524,  w0525,
            w0526,  w0527,  w0528,  w0529,  w0530,
            w0531,  w0532,  w0533,  w0534,  w0535,
            w0536,  w0537,  w0538,  w0539,  w0540,
            w0541,  w0542,  w0543,  w0544,  w0545,
            w0546,  w0547,  w0548,  w0549,  w0550,
            w0551,  w0552,  w0553,  w0554,  w0555,
            w0556,  w0557,  w0558,  w0559,  w0560,
            w0561,  w0562,  w0563,  w0564,  w0565,
            w0566,  w0567,  w0568,  w0569,  w0570,
            w0571,  w0572,  w0573,  w0574,  w0575,
            w0576,  w0577,  w0578,  w0579,  w0580,
            w0581,  w0582,  w0583,  w0584,  w0585,
            w0586,  w0587,  w0588,  w0589,  w0590,
            w0591,  w0592,  w0593,  w0594,  w0595,
            w0596,  w0597,  w0598,  w0599,  w0600,
            w0601,  w0602,  w0603,  w0604,  w0605,
            w0606,  w0607,  w0608,  w0609,  w0610,
            w0611,  w0612,  w0613,  w0614,  w0615,
            w0616,  w0617,  w0618,  w0619,  w0620,
            w0621,  w0622,  w0623,  w0624,  w0625,
            w0626,  w0627,  w0628,  w0629,  w0630,
            w0631,  w0632,  w0633,  w0634,  w0635,
            w0636,  w0637,  w0638,  w0639,  w0640,
            w0641,  w0642,  w0643,  w0644,  w0645,
            w0646,  w0647,  w0648,  w0649,  w0650,
            w0651,  w0652,  w0653,  w0654,  w0655,
            w0656,  w0657,  w0658,  w0659,  w0660,
            w0661,  w0662,  w0663,  w0664,  w0665,
            w0666,  w0667,  w0668,  w0669,  w0670,
            w0671,  w0672,  w0673,  w0674,  w0675,
            w0676,  w0677,  w0678,  w0679,  w0680,
            w0681,  w0682,  w0683,  w0684,  w0685,
            w0686,  w0687,  w0688,  w0689,  w0690,
            w0691,  w0692,  w0693,  w0694,  w0695,
            w0696,  w0697,  w0698,  w0699,  w0700,
            w0701,  w0702,  w0703,  w0704,  w0705,
            w0706,  w0707,  w0708,  w0709,  w0710,
            w0711,  w0712,  w0713,  w0714,  w0715,
            w0716,  w0717,  w0718,  w0719,  w0720,
            w0721,  w0722,  w0723,  w0724,  w0725,
            w0726,  w0727,  w0728,  w0729,  w0730,
            w0731,  w0732,  w0733,  w0734,  w0735,
            w0736,  w0737,  w0738,  w0739,  w0740,
            w0741,  w0742,  w0743,  w0744,  w0745,
            w0746,  w0747,  w0748,  w0749,  w0750,
            w0751,  w0752,  w0753,  w0754,  w0755,
            w0756,  w0757,  w0758,  w0759,  w0760,
            w0761,  w0762,  w0763,  w0764,  w0765,
            w0766,  w0767,  w0768,  w0769,  w0770,
            w0771,  w0772,  w0773,  w0774,  w0775,
            w0776,  w0777,  w0778,  w0779,  w0780,
            w0781,  w0782,  w0783,  w0784,  w0785,
            w0786,  w0787,  w0788,  w0789,  w0790,
            w0791,  w0792,  w0793,  w0794,  w0795,
            w0796,  w0797,  w0798,  w0799,  w0800,
            w0801,  w0802,  w0803,  w0804,  w0805,
            w0806,  w0807,  w0808,  w0809,  w0810,
            w0811,  w0812,  w0813,  w0814,  w0815,
            w0816,  w0817,  w0818,  w0819,  w0820,
            w0821,  w0822,  w0823,  w0824,  w0825,
            w0826,  w0827,  w0828,  w0829,  w0830,
            w0831,  w0832,  w0833,  w0834,  w0835,
            w0836,  w0837,  w0838,  w0839,  w0840,
            w0841,  w0842,  w0843,  w0844,  w0845,
            w0846,  w0847,  w0848,  w0849,  w0850,
            w0851,  w0852,  w0853,  w0854,  w0855,
            w0856,  w0857,  w0858,  w0859,  w0860,
            w0861,  w0862,  w0863,  w0864,  w0865,
            w0866,  w0867,  w0868,  w0869,  w0870,
            w0871,  w0872,  w0873,  w0874,  w0875,
            w0876,  w0877,  w0878,  w0879,  w0880,
            w0881,  w0882,  w0883,  w0884,  w0885,
            w0886,  w0887,  w0888,  w0889,  w0890,
            w0891,  w0892,  w0893,  w0894,  w0895,
            w0896,  w0897,  w0898,  w0899,  w0900,
            w0901,  w0902,  w0903,  w0904,  w0905,
            w0906,  w0907,  w0908,  w0909,  w0910,
            w0911,  w0912,  w0913,  w0914,  w0915,
            w0916,  w0917,  w0918,  w0919,  w0920,
            w0921,  w0922,  w0923,  w0924,  w0925,
            w0926,  w0927,  w0928,  w0929,  w0930,
            w0931,  w0932,  w0933,  w0934,  w0935,
            w0936,  w0937,  w0938,  w0939,  w0940,
            w0941,  w0942,  w0943,  w0944,  w0945,
            w0946,  w0947,  w0948,  w0949,  w0950,
            w0951,  w0952,  w0953,  w0954,  w0955,
            w0956,  w0957,  w0958,  w0959,  w0960,
            w0961,  w0962,  w0963,  w0964,  w0965,
            w0966,  w0967,  w0968,  w0969,  w0970,
            w0971,  w0972,  w0973,  w0974,  w0975,
            w0976,  w0977,  w0978,  w0979,  w0980,
            w0981,  w0982,  w0983,  w0984,  w0985,
            w0986,  w0987,  w0988,  w0989,  w0990,
            w0991,  w0992,  w0993,  w0994,  w0995,
            w0996,  w0997,  w0998,  w0999,  w1000,
            Msn1, FnGrp1,   Msn2,   Msn3,   Msn4, 
            Msn5,   Msn6,   Msn7,   Msn8,   Msn9, 
           Msn10,  Msn11,  Msn12, FnGrp2,  Msn13, 
           Msn14
      INDAT(1)=
                 0  1  2  3  0  4  5  6
                 0  7  8  9  0  10  11  12
                 0  13  14  15  0  16  17  18
                 0  19  20  21  0  22  23  24
                 0  25  26  27  0  28  29  30
                 0  31  32  33  0  34  35  36
                 0  37  38  39  0  40  41  42
                 0  43  44  45  0  46  47  48
                 0  49  50  51  0  52  53  54
                 0  55  56  57  0  58  59  60
                 0  61  62  63  0  64  65  66
                 0  67  68  69  0  70  71  72
                 0  73  74  75  0  76  77  78
                 0  79  80  81  0  82  83  84
                 0  85  86  87  0  88  89  90
                 0  91  92  93  0  94  95  96
                 0  97  98  99  0  100  101  102
                 0  103  104  105  0  106  107  108
                 0  109  110  111  0  112  113  114
                 0  115  116  117  0  118  119  120
                 0  121  122  123  0  124  125  126
                 0  127  128  129  0  130  131  132
                 0  133  134  135  0  136  137  138
                 0  139  140  141  0  142  143  144
                 0  145  146  147  0  148  149  150
                 0  151  152  153  0  154  155  156
                 0  157  158  159  0  160  161  162
                 0  163  164  165  0  166  167  168
                 0  169  170  171  0  172  173  174
                 0  175  176  177  0  178  179  180
                 0  181  182  183  0  184  185  186
                 0  187  188  189  0  190  191  192
                 0  193  194  195  0  196  197  198
                 0  199  200  201  0  202  203  204
                 0  205  206  207  0  208  209  210
                 0  211  212  213  0  214  215  216
                 0  217  218  219  0  220  221  222
                 0  223  224  225  0  226  227  228
                 0  229  230  231  0  232  233  234
                 0  235  236  237  0  238  239  240
                 0  241  242  243  0  244  245  246
                 0  247  248  249  0  250  251  252
                 0  253  254  255  0  256  257  258
                 0  259  260  261  0  262  263  264
                 0  265  266  267  0  268  269  270
                 0  271  272  273  0  274  275  276
                 0  277  278  279  0  280  281  282
                 0  283  284  285  0  286  287  288
                 0  289  290  291  0  292  293  294
                 0  295  296  297  0  298  299  300
                 0  301  302  303  0  304  305  306
                 0  307  308  309  0  310  311  312
                 0  313  314  315  0  316  317  318
                 0  319  320  321  0  322  323  324
                 0  325  326  327  0  328  329  330
                 0  331  332  333  0  334  335  336
                 0  337  338  339  0  340  341  342
                 0  343  344  345  0  346  347  348
                 0  349  350  351  0  352  353  354
                 0  355  356  357  0  358  359  360
                 0  361  362  363  0  364  365  366
                 0  367  368  369  0  370  371  372
                 0  373  374  375  0  376  377  378
                 0  379  380  381  0  382  383  384
                 0  385  386  387  0  388  389  390
                 0  391  392  393  0  394  395  396
                 0  397  398  399  0  400  401  402
                 0  403  404  405  0  406  407  408
                 0  409  410  411  0  412  413  414
                 0  415  416  417  0  418  419  420
                 0  421  422  423  0  424  425  426
                 0  427  428  429  0  430  431  432
                 0  433  434  435  0  436  437  438
                 0  439  440  441  0  442  443  444
                 0  445  446  447  0  448  449  450
                 0  451  452  453  0  454  455  456
                 0  457  458  459  0  460  461  462
                 0  463  464  465  0  466  467  468
                 0  469  470  471  0  472  473  474
                 0  475  476  477  0  478  479  480
                 0  481  482  483  0  484  485  486
                 0  487  488  489  0  490  491  492
                 0  493  494  495  0  496  497  498
                 0  499  500  501  0  502  503  504
                 0  505  506  507  0  508  509  510
                 0  511  512  513  0  514  515  516
                 0  517  518  519  0  520  521  522
                 0  523  524  525  0  526  527  528
                 0  529  530  531  0  532  533  534
                 0  535  536  537  0  538  539  540
                 0  541  542  543  0  544  545  546
                 0  547  548  549  0  550  551  552
                 0  553  554  555  0  556  557  558
                 0  559  560  561  0  562  563  564
                 0  565  566  567  0  568  569  570
                 0  571  572  573  0  574  575  576
                 0  577  578  579  0  580  581  582
                 0  583  584  585  0  586  587  588
                 0  589  590  591  0  592  593  594
                 0  595  596  597  0  598  599  600
                 0  601  602  603  0  604  605  606
                 0  607  608  609  0  610  611  612
                 0  613  614  615  0  616  617  618
                 0  619  620  621  0  622  623  624
                 0  625  626  627  0  628  629  630
                 0  631  632  633  0  634  635  636
                 0  637  638  639  0  640  641  642
                 0  643  644  645  0  646  647  648
                 0  649  650  651  0  652  653  654
                 0  655  656  657  0  658  659  660
                 0  661  662  663  0  664  665  666
                 0  667  668  669  0  670  671  672
                 0  673  674  675  0  676  677  678
                 0  679  680  681  0  682  683  684
                 0  685  686  687  0  688  689  690
                 0  691  692  693  0  694  695  696
                 0  697  698  699  0  700  701  702
                 0  703  704  705  0  706  707  708
                 0  709  710  711  0  712  713  714
                 0  715  716  717  0  718  719  720
                 0  721  722  723  0  724  725  726
                 0  727  728  729  0  730  731  732
                 0  733  734  735  0  736  737  738
                 0  739  740  741  0  742  743  744
                 0  745  746  747  0  748  749  750
                 0  751  752  753  0  754  755  756
                 0  757  758  759  0  760  761  762
                 0  763  764  765  0  766  767  768
                 0  769  770  771  0  772  773  774
                 0  775  776  777  0  778  779  780
                 0  781  782  783  0  784  785  786
                 0  787  788  789  0  790  791  792
                 0  793  794  795  0  796  797  798
                 0  799  800  801  0  802  803  804
                 0  805  806  807  0  808  809  810
                 0  811  812  813  0  814  815  816
                 0  817  818  819  0  820  821  822
                 0  823  824  825  0  826  827  828
                 0  829  830  831  0  832  833  834
                 0  835  836  837  0  838  839  840
                 0  841  842  843  0  844  845  846
                 0  847  848  849  0  850  851  852
                 0  853  854  855  0  856  857  858
                 0  859  860  861  0  862  863  864
                 0  865  866  867  0  868  869  870
                 0  871  872  873  0  874  875  876
                 0  877  878  879  0  880  881  882
                 0  883  884  885  0  886  887  888
                 0  889  890  891  0  892  893  894
                 0  895  896  897  0  898  899  900
                 0  901  902  903  0  904  905  906
                 0  907  908  909  0  910  911  912
                 0  913  914  915  0  916  917  918
                 0  919  920  921  0  922  923  924
                 0  925  926  927  0  928  929  930
                 0  931  932  933  0  934  935  936
                 0  937  938  939  0  940  941  942
                 0  943  944  945  0  946  947  948
                 0  949  950  951  0  952  953  954
                 0  955  956  957  0  958  959  960
                 0  961  962  963  0  964  965  966
                 0  967  968  969  0  970  971  972
                 0  973  974  975  0  976  977  978
                 0  979  980  981  0  982  983  984
                 0  985  986  987  0  988  989  990
                 0  991  992  993  0  994  995  996
                 0  997  998  999  0  1000  1001  1002
                 0  1003  1004  1005  0  1006  1007  1008
                 0  1009  1010  1011  0  1012  1013  1014
                 0  1015  1016  1017  0  1018  1019  1020
                 0  1021  1022  1023  0  1024  1025  1026
                 0  1027  1028  1029  0  1030  1031  1032
                 0  1033  1034  1035  0  1036  1037  1038
                 0  1039  1040  1041  0  1042  1043  1044
                 0  1045  1046  1047  0  1048  1049  1050
                 0  1051  1052  1053  0  1054  1055  1056
                 0  1057  1058  1059  0  1060  1061  1062
                 0  1063  1064  1065  0  1066  1067  1068
                 0  1069  1070  1071  0  1072  1073  1074
                 0  1075  1076  1077  0  1078  1079  1080
                 0  1081  1082  1083  0  1084  1085  1086
                 0  1087  1088  1089  0  1090  1091  1092
                 0  1093  1094  1095  0  1096  1097  1098
                 0  1099  1100  1101  0  1102  1103  1104
                 0  1105  1106  1107  0  1108  1109  1110
                 0  1111  1112  1113  0  1114  1115  1116
                 0  1117  1118  1119  0  1120  1121  1122
                 0  1123  1124  1125  0  1126  1127  1128
                 0  1129  1130  1131  0  1132  1133  1134
                 0  1135  1136  1137  0  1138  1139  1140
                 0  1141  1142  1143  0  1144  1145  1146
                 0  1147  1148  1149  0  1150  1151  1152
                 0  1153  1154  1155  0  1156  1157  1158
                 0  1159  1160  1161  0  1162  1163  1164
                 0  1165  1166  1167  0  1168  1169  1170
                 0  1171  1172  1173  0  1174  1175  1176
                 0  1177  1178  1179  0  1180  1181  1182
                 0  1183  1184  1185  0  1186  1187  1188
                 0  1189  1190  1191  0  1192  1193  1194
                 0  1195  1196  1197  0  1198  1199  1200
                 0  1201  1202  1203  0  1204  1205  1206
                 0  1207  1208  1209  0  1210  1211  1212
                 0  1213  1214  1215  0  1216  1217  1218
                 0  1219  1220  1221  0  1222  1223  1224
                 0  1225  1226  1227  0  1228  1229  1230
                 0  1231  1232  1233  0  1234  1235  1236
                 0  1237  1238  1239  0  1240  1241  1242
                 0  1243  1244  1245  0  1246  1247  1248
                 0  1249  1250  1251  0  1252  1253  1254
                 0  1255  1256  1257  0  1258  1259  1260
                 0  1261  1262  1263  0  1264  1265  1266
                 0  1267  1268  1269  0  1270  1271  1272
                 0  1273  1274  1275  0  1276  1277  1278
                 0  1279  1280  1281  0  1282  1283  1284
                 0  1285  1286  1287  0  1288  1289  1290
                 0  1291  1292  1293  0  1294  1295  1296
                 0  1297  1298  1299  0  1300  1301  1302
                 0  1303  1304  1305  0  1306  1307  1308
                 0  1309  1310  1311  0  1312  1313  1314
                 0  1315  1316  1317  0  1318  1319  1320
                 0  1321  1322  1323  0  1324  1325  1326
                 0  1327  1328  1329  0  1330  1331  1332
                 0  1333  1334  1335  0  1336  1337  1338
                 0  1339  1340  1341  0  1342  1343  1344
                 0  1345  1346  1347  0  1348  1349  1350
                 0  1351  1352  1353  0  1354  1355  1356
                 0  1357  1358  1359  0  1360  1361  1362
                 0  1363  1364  1365  0  1366  1367  1368
                 0  1369  1370  1371  0  1372  1373  1374
                 0  1375  1376  1377  0  1378  1379  1380
                 0  1381  1382  1383  0  1384  1385  1386
                 0  1387  1388  1389  0  1390  1391  1392
                 0  1393  1394  1395  0  1396  1397  1398
                 0  1399  1400  1401  0  1402  1403  1404
                 0  1405  1406  1407  0  1408  1409  1410
                 0  1411  1412  1413  0  1414  1415  1416
                 0  1417  1418  1419  0  1420  1421  1422
                 0  1423  1424  1425  0  1426  1427  1428
                 0  1429  1430  1431  0  1432  1433  1434
                 0  1435  1436  1437  0  1438  1439  1440
                 0  1441  1442  1443  0  1444  1445  1446
                 0  1447  1448  1449  0  1450  1451  1452
                 0  1453  1454  1455  0  1456  1457  1458
                 0  1459  1460  1461  0  1462  1463  1464
                 0  1465  1466  1467  0  1468  1469  1470
                 0  1471  1472  1473  0  1474  1475  1476
                 0  1477  1478  1479  0  1480  1481  1482
                 0  1483  1484  1485  0  1486  1487  1488
                 0  1489  1490  1491  0  1492  1493  1494
                 0  1495  1496  1497  0  1498  1499  1500
                 0  1501  1502  1503  0  1504  1505  1506
                 0  1507  1508  1509  0  1510  1511  1512
                 0  1513  1514  1515  0  1516  1517  1518
                 0  1519  1520  1521  0  1522  1523  1524
                 0  1525  1526  1527  0  1528  1529  1530
                 0  1531  1532  1533  0  1534  1535  1536
                 0  1537  1538  1539  0  1540  1541  1542
                 0  1543  1544  1545  0  1546  1547  1548
                 0  1549  1550  1551  0  1552  1553  1554
                 0  1555  1556  1557  0  1558  1559  1560
                 0  1561  1562  1563  0  1564  1565  1566
                 0  1567  1568  1569  0  1570  1571  1572
                 0  1573  1574  1575  0  1576  1577  1578
                 0  1579  1580  1581  0  1582  1583  1584
                 0  1585  1586  1587  0  1588  1589  1590
                 0  1591  1592  1593  0  1594  1595  1596
                 0  1597  1598  1599  0  1600  1601  1602
                 0  1603  1604  1605  0  1606  1607  1608
                 0  1609  1610  1611  0  1612  1613  1614
                 0  1615  1616  1617  0  1618  1619  1620
                 0  1621  1622  1623  0  1624  1625  1626
                 0  1627  1628  1629  0  1630  1631  1632
                 0  1633  1634  1635  0  1636  1637  1638
                 0  1639  1640  1641  0  1642  1643  1644
                 0  1645  1646  1647  0  1648  1649  1650
                 0  1651  1652  1653  0  1654  1655  1656
                 0  1657  1658  1659  0  1660  1661  1662
                 0  1663  1664  1665  0  1666  1667  1668
                 0  1669  1670  1671  0  1672  1673  1674
                 0  1675  1676  1677  0  1678  1679  1680
                 0  1681  1682  1683  0  1684  1685  1686
                 0  1687  1688  1689  0  1690  1691  1692
                 0  1693  1694  1695  0  1696  1697  1698
                 0  1699  1700  1701  0  1702  1703  1704
                 0  1705  1706  1707  0  1708  1709  1710
                 0  1711  1712  1713  0  1714  1715  1716
                 0  1717  1718  1719  0  1720  1721  1722
                 0  1723  1724  1725  0  1726  1727  1728
                 0  1729  1730  1731  0  1732  1733  1734
                 0  1735  1736  1737  0  1738  1739  1740
                 0  1741  1742  1743  0  1744  1745  1746
                 0  1747  1748  1749  0  1750  1751  1752
                 0  1753  1754  1755  0  1756  1757  1758
                 0  1759  1760  1761  0  1762  1763  1764
                 0  1765  1766  1767  0  1768  1769  1770
                 0  1771  1772  1773  0  1774  1775  1776
                 0  1777  1778  1779  0  1780  1781  1782
                 0  1783  1784  1785  0  1786  1787  1788
                 0  1789  1790  1791  0  1792  1793  1794
                 0  1795  1796  1797  0  1798  1799  1800
                 0  1801  1802  1803  0  1804  1805  1806
                 0  1807  1808  1809  0  1810  1811  1812
                 0  1813  1814  1815  0  1816  1817  1818
                 0  1819  1820  1821  0  1822  1823  1824
                 0  1825  1826  1827  0  1828  1829  1830
                 0  1831  1832  1833  0  1834  1835  1836
                 0  1837  1838  1839  0  1840  1841  1842
                 0  1843  1844  1845  0  1846  1847  1848
                 0  1849  1850  1851  0  1852  1853  1854
                 0  1855  1856  1857  0  1858  1859  1860
                 0  1861  1862  1863  0  1864  1865  1866
                 0  1867  1868  1869  0  1870  1871  1872
                 0  1873  1874  1875  0  1876  1877  1878
                 0  1879  1880  1881  0  1882  1883  1884
                 0  1885  1886  1887  0  1888  1889  1890
                 0  1891  1892  1893  0  1894  1895  1896
                 0  1897  1898  1899  0  1900  1901  1902
                 0  1903  1904  1905  0  1906  1907  1908
                 0  1909  1910  1911  0  1912  1913  1914
                 0  1915  1916  1917  0  1918  1919  1920
                 0  1921  1922  1923  0  1924  1925  1926
                 0  1927  1928  1929  0  1930  1931  1932
                 0  1933  1934  1935  0  1936  1937  1938
                 0  1939  1940  1941  0  1942  1943  1944
                 0  1945  1946  1947  0  1948  1949  1950
                 0  1951  1952  1953  0  1954  1955  1956
                 0  1957  1958  1959  0  1960  1961  1962
                 0  1963  1964  1965  0  1966  1967  1968
                 0  1969  1970  1971  0  1972  1973  1974
                 0  1975  1976  1977  0  1978  1979  1980
                 0  1981  1982  1983  0  1984  1985  1986
                 0  1987  1988  1989  0  1990  1991  1992
                 0  1993  1994  1995  0  1996  1997  1998
                 0  1999  2000  2001  0  2002  2003  2004
                 0  2005  2006  2007  0  2008  2009  2010
                 0  2011  2012  2013  0  2014  2015  2016
                 0  2017  2018  2019  0  2020  2021  2022
                 0  2023  2024  2025  0  2026  2027  2028
                 0  2029  2030  2031  0  2032  2033  2034
                 0  2035  2036  2037  0  2038  2039  2040
                 0  2041  2042  2043  0  2044  2045  2046
                 0  2047  2048  2049  0  2050  2051  2052