 $MP2 code=omprimp2 $END
 $AUXBAS cabnam=ccd $END
! Change NGROUP to reflect number of nodes you are running on
! Functional groups are absorbed to MSN fragments
 $GDDI NGROUP=30 $END
! Change 1st and 2nd entry of NGRFMO(1) to reflect number of nodes you
! are running on
 $FMOPRP
    !NGRFMO(1)= 30,30, 0, 30, 180,   0, 0, 0, 0, 0
    NPRINT=1
 $END
 $SCF DIRSCF=.TRUE. DAMP=.TRUE. SHIFT=.TRUE. NPUNCH=0 $END
 $SYSTEM MWORDS=1500 MEMDDI=290000 $END
 $LOCAL CVGLOC=1.0E-6 FCORE=.TRUE. $END
! Threaded integrals
 $INTGRL INTOMP=1 $END
 $CONTRL SCFTYP=RHF RUNTYP=ENERGY NPRINT=-5
         MPLEVL=2 ISPHER=1
         LOCAL=RUEDNBRG MAXIT=50 $END
 $FMO
     NBODY=2
     IEFMO=1
     RESDIM=0.5
! UNCOMMENT THE LINE BELOW FOR POST-HF RUNS
     RCORSD=0.5
     MODEFM(1)=0, 16, 1, 1, 1
     RAFO(1)=.1, 1, 1
     MAXCAO=9
     MAXBND=201
     NLAYER=1
     NFRAG=181
     ICHARG(1)=
          0, 0, 0, 0, 0, 0, 0, 0, 0, 0,
          0, 0, 0, 0, 0, 0, 0, 0, 0, 0,
          0, 0, 0, 0, 0, 0, 0, 0
     FRGNAM(1)=
            MSN1,   MSN2,   MSN3,   MSN4,
            MSN5,   MSN6,   MSN7,   MSN8,   MSN9,
           MSN10,  MSN11,  MSN12,  MSN13,
           MSN14,  MSN15,  MSNFN,
           MSN17,  MSN18,  MSN19,  MSN20,  MSN21,
           MSN22,  MSN23,  MSN24,  MSN25,  MSN26,
           MSN27,  MSN28
      INDAT(1)=0
               283   286   328   331   334   372
               376   380   411   414   417   440
               443   446   469   471   474   500
               503   506   540   543   980   996
              1016  1027  1040  1049  1065  1300
              1301  1304  1305  1309  1314  1315
              1319  1320  1324  1325  1329  1333
              1336  1337  1340  1341  1344  1345
              1348  1437  1546  1679  1680  1682
              1683  1684  1685  1686  1687  1688
              1689  1690  1691  1692     
              1310  1698
                 0
               337   383   420   448   477   508
               545   584   999  1029  1051  1080
              1302  1303  1306  1307  1308  1311
              1312  1313  1316  1317  1318  1321
              1322  1323  1326  1327  1328  1330
              1331  1332  1334  1335  1338  1339
              1342  1343  1346  1347  1349  1456
              1475  1491  1503  1518  1532  1549
              1562  1681  1693     0
               368   375   379   407   410   413
               437   442   445   466   468   470
               473   476   498   502   505   507
               535   537   539   542   544   580
               582   583   623   625   626   670
               716   717   759  1012  1015  1026
              1037  1039  1048  1050  1062  1064
              1078  1079  1097  1115  1155  1470
              1473  1488  1500  1514  1517  1529
              1531  1545  1548  1561  1574  1576
              1588  1599  1610     0
               464   465   497   499   501   504
               532   534   536   538   541   576
               578   579   581   617   619   621
               622   624   665   667   668   669
               709   711   713   714   715   755
               757   758   794  1047  1061  1063
              1076  1077  1095  1096  1113  1114
              1134  1135  1153  1154  1172  1512
              1513  1530  1543  1547  1572  1575
              1596  1598  1609  1620  1645  1694
                 0
               495   496   529   530   531   533
               572   574   575   577   612   614
               616   618   620   661   663   664
               666   704   706   708   710   712
               751   753   754   756   789   791
               792   793   820  1060  1074  1075
              1093  1094  1111  1112  1132  1133
              1151  1152  1170  1171  1185  1528
              1542  1544  1570  1573  1594  1597
              1617  1619  1629     0
               527   528   569   570   571   573
               608   610   611   613   615   657
               659   660   662   699   701   703
               705   707   747   749   750   752
               783   785   787   788   790   816
               818   819   837   838  1073  1091
              1092  1109  1110  1130  1131  1149
              1150  1168  1169  1183  1184  1194
              1540  1541  1560  1568  1571  1592
              1595  1615  1618  1628  1635  1636
                 0
               567   568   605   606   607   609
               653   655   656   658   694   696
               698   700   702   743   745   746
               748   778   780   782   784   786
               812   814   815   817   832   834
               835   836   847  1090  1107  1108
              1128  1129  1147  1148  1166  1167
              1181  1182  1192  1193  1199  1559
              1567  1569  1590  1593  1613  1616
              1632  1634  1641     0
               652   654   695   697   740   742
               744   779   781   809   811   813
               831   833   844   845   846   850
               851  1127  1146  1165  1180  1191
              1198  1201  1228  1229  1230  1231
              1232  1233  1234  1235  1236  1237
              1238  1239  1240  1241  1242  1243
              1244  1245  1246  1247  1248  1249
              1587  1591  1614  1633  1643  1644
              1655  1656  1657  1658  1659  1660
              1661  1662  1663     0
               603   604   647   650   651   686
               688   690   691   692   693   733
               736   739   741   770   772   774
               775   776   777   803   805   808
               810   824   825   827   828   829
               830   841   842   843   848   849
              1106  1124  1126  1143  1145  1162
              1164  1177  1179  1188  1190  1196
              1197  1200  1202  1203  1204  1205
              1566  1585  1606  1626  1639  1640
              1642     0
               565   566   597   599   601   602
               640   643   645   648   649   682
               684   687   689   728   731   734
               737   738   766   768   771   773
               799   801   804   806   807   822
               823   826   839   840  1089  1103
              1105  1122  1125  1141  1144  1160
              1163  1175  1178  1187  1189  1195
              1557  1558  1565  1582  1586  1604
              1608  1624  1627  1631  1637  1638
                 0
               525   526   559   561   563   564
               593   595   598   600   635   638
               641   644   646   678   680   683
               685   724   726   729   732   735
               763   764   767   769   797   798
               800   802   821  1072  1086  1088
              1101  1104  1120  1123  1139  1142
              1158  1161  1174  1176  1186  1539
              1555  1556  1580  1584  1603  1607
              1623  1625  1630     0
               493   494   517   520   523   524
               551   554   557   560   589   591
               594   596   631   633   636   639
               642   674   676   679   681   720
               722   725   727   730   761   762
               765   795   796  1059  1068  1071
              1084  1087  1099  1102  1118  1121
              1137  1140  1157  1159  1173  1526
              1527  1537  1552  1579  1583  1601
              1605  1612  1621  1622     
               562  1696
                 0
               458   461   479   481   483   486
               489   492   510   512   514   518
               521   546   547   548   549   552
               555   558   585   586   587   590
               592   627   628   629   630   632
               634   637   671   672   673   675
               677   718   719   721   723   760
              1044  1053  1055  1058  1066  1069
              1081  1082  1085  1098  1100  1116
              1117  1119  1136  1138  1156  1509
              1520  1522  1525  1534  1550  1551
              1554  1563  1577  1578  1581  1589
              1600  1602  1611     0
               303   340   346   350   354   386
               389   392   399   423   427   430
               433   451   453   455   462   480
               484   487   490   511   513   515
               522   550   553   556   588   986
              1002  1005  1019  1022  1032  1034
              1042  1045  1054  1056  1067  1070
              1083  1258  1261  1268  1271  1278
              1280  1285  1445  1459  1462  1463
              1478  1482  1494  1496  1506  1510
              1521  1523  1535  1538  1553  1564
                 0
               299   343   396   425   459   482
               519  1250  1251  1252  1253  1254
              1255  1256  1257  1259  1260  1262
              1263  1264  1265  1266  1267  1270
              1272  1273  1274  1275  1276  1277
              1279  1281  1282  1283  1284  1286
              1287  1288  1289  1290  1291  1292
              1293  1294  1295  1296  1297  1298
              1299  1664  1665  1666  1667  1668
              1669  1670  1671  1672  1673  1674
              1675  1676  1677  1678     
              1269  1697
                 0
               196   239   243   246   249   291
               293   296   304   341   347   351
               387   390   393   400   424   428
               431   434   452   454   456   463
               485   488   491   516   942   962
               964   983   987  1003  1006  1020
              1023  1033  1035  1043  1046  1057
              1412  1423  1425  1426  1441  1446
              1460  1479  1483  1495  1497  1507
              1511  1524  1536     
               355  1695  1699 -1721
                 0
               139   141   143   188   189   191
               193   240   241   244   247   292
               294   297   300   342   344   348
               352   388   391   394   397   426
               429   432   457   460   918   919
               940   963   965   984  1004  1007
              1021  1036  1396  1397  1409  1424
              1442  1461  1480  1508     0
                60    96    97    98   100   140
               142   145   190   192   194   197
               199   242   245   250   295   298
               301   305   307   345   349   356
               395   398   401   402   435   881
               898   899   920   921   941   943
               966   967   985   988  1008  1009
              1024  1374  1385  1387  1410  1413
              1443  1447  1481  1484  1498     0
                33    34    61    62    64    99
               101   102   104   106   144   146
               147   149   195   198   200   202
               204   248   251   252   254   302
               306   308   309   311   353   357
               358   359   403   404   868   882
               883   900   901   922   923   944
               945   968   969   989   990  1010
              1365  1366  1375  1386  1389  1411
              1415  1444  1449  1464  1485  1486
                 0
                15    35    36    37    39    63
                65    66    68   103   105   107
               109   111   148   150   151   153
               201   203   205   207   209   253
               255   256   258   310   312   313
               314   360   361   859   869   870
               884   885   902   903   924   925
               946   947   970   971   991  1358
              1367  1369  1388  1391  1414  1417
              1448  1450  1465     0
                 5     6    16    17    19    38
                40    41    43    45    67    69
                70    72   108   110   112   114
               116   152   154   155   157   206
               208   210   211   213   257   259
               260   261   315   316   854   860
               861   871   872   886   887   904
               905   926   927   948   949   972
              1353  1354  1359  1368  1371  1390
              1393  1416  1419  1427  1451  1452
                 0
                 1     2     7     8    18    20
                22    42    44    71    73    75
               113   115   156   158   160   212
               852   855   862   873   888   906
               928  1206  1207  1208  1209  1210
              1211  1212  1213  1214  1215  1216
              1217  1218  1219  1220  1221  1222
              1223  1224  1225  1226  1227  1350
              1355  1370  1392  1418  1646  1647
              1648  1649  1650  1651  1652  1653
              1654     0
                 3     4     9    10    11    12
                13    21    23    24    26    28
                46    47    48    49    51    53
                74    76    78    80    83   117
               118   119   120   122   124   159
               161   163   165   168   214   215
               216   218   220   262   263   853
               856   857   863   865   874   876
               889   891   907   909   929   931
               950  1351  1352  1356  1361  1378
              1400  1420  1428     0
                14    25    27    29    30    50
                52    55    56    77    79    82
                85    87   121   123   126   128
               162   164   167   170   173   217
               219   222   224   264   265   267
               269   317   318   858   864   866
               875   878   890   893   908   911
               930   933   951   953   973  1357
              1360  1362  1376  1379  1398  1402
              1429  1431  1453     0
                31    32    54    57    58    81
                84    86    89    91   125   127
               130   132   166   169   172   175
               178   221   223   226   228   266
               268   271   273   276   319   320
               322   324   362   363   867   877
               879   892   895   910   913   932
               935   952   955   974   976   992
              1363  1364  1372  1377  1381  1399
              1404  1430  1434  1454  1466  1467
                 0
                59    88    90    92    93   129
               131   134   135   171   174   177
               180   182   225   227   230   232
               270   272   275   279   282   321
               323   327   330   364   365   367
               371   405   406   880   894   896
               912   915   934   937   954   957
               975   979   993   995  1011  1373
              1380  1382  1401  1405  1432  1436
              1468  1472  1487     0
                94    95   133   136   137   138
               176   179   181   184   185   186
               187   229   234   236   238   274
               278   281   285   287   288   290
               326   333   336   339   366   370
               374   378   381   382   385   409
               416   419   422   436   439   447
               450   897   914   916   917   936
               939   956   959   961   978   982
               994   998  1001  1014  1018  1025
              1031  1383  1384  1394  1395  1403
              1407  1408  1422  1433  1438  1440
              1458  1469  1474  1477  1490  1493
              1499  1502  1505     0
               183   231   233   235   237   277
               280   284   289   325   329   332
               335   338   369   373   377   384
               408   412   415   418   421   438
               441   444   449   467   472   475
               478   509   938   958   960   977
               981   997  1000  1013  1017  1028
              1030  1038  1041  1052  1406  1421
              1435  1439  1455  1457  1471  1476
              1489  1492  1501  1504  1515  1516
              1519  1533     0
! insert
    1722 -1811 0
    1812 -1901 0
    1902 -1991 0
    1992 -2081 0
    2082 -2171 0
    2172 -2261 0
    2262 -2351 0
    2352 -2441 0
    2442 -2531 0
    2532 -2621 0
    2622 -2711 0
    2712 -2801 0
    2802 -2891 0
    2892 -2981 0
    2982 -3071 0
    3072 -3161 0
    3162 -3251 0
    3252 -3341 0
    3342 -3431 0
    3432 -3521 0
    3522 -3611 0
    3612 -3701 0
    3702 -3791 0
    3792 -3881 0
    3882 -3971 0
    3972 -4061 0
    4062 -4151 0
    4152 -4241 0
    4242 -4331 0
    4332 -4421 0
    4422 -4511 0
    4512 -4601 0
    4602 -4691 0
    4692 -4781 0
    4782 -4871 0
    4872 -4961 0
    4962 -5051 0
    5052 -5141 0
    5142 -5231 0
    5232 -5321 0
    5322 -5411 0
    5412 -5501 0
    5502 -5591 0
    5592 -5681 0
    5682 -5771 0
    5772 -5861 0
    5862 -5951 0
    5952 -6041 0
    6042 -6131 0
    6132 -6221 0
    6222 -6311 0
    6312 -6401 0
    6402 -6491 0
    6492 -6581 0
    6582 -6671 0
    6672 -6761 0
    6762 -6851 0
    6852 -6941 0
    6942 -7031 0
    7032 -7121 0
    7122 -7211 0
    7212 -7301 0
    7302 -7391 0
    7392 -7481 0
    7482 -7571 0
    7572 -7661 0
    7662 -7751 0
    7752 -7841 0
    7842 -7931 0
    7932 -8021 0
    8022 -8111 0
    8112 -8201 0
    8202 -8291 0
    8292 -8381 0
    8382 -8471 0
    8472 -8561 0
    8562 -8651 0
    8652 -8741 0
    8742 -8831 0
    8832 -8921 0
    8922 -9011 0
    9012 -9101 0
    9102 -9191 0
    9192 -9281 0
    9282 -9371 0
    9372 -9461 0
    9462 -9551 0
    9552 -9641 0
    9642 -9731 0
    9732 -9821 0
    9822 -9911 0
    9912 -10001 0
    10002 -10091 0
    10092 -10181 0
    10182 -10271 0
    10272 -10361 0
    10362 -10451 0
    10452 -10541 0
    10542 -10631 0
    10632 -10721 0
    10722 -10811 0
    10812 -10901 0
    10902 -10991 0
    10992 -11081 0
    11082 -11171 0
    11172 -11261 0
    11262 -11351 0
    11352 -11441 0
    11442 -11531 0
    11532 -11621 0
    11622 -11711 0
    11712 -11801 0
    11802 -11891 0
    11892 -11981 0
    11982 -12071 0
    12072 -12161 0
    12162 -12251 0
    12252 -12341 0
    12342 -12431 0
    12432 -12521 0
    12522 -12611 0
    12612 -12701 0
    12702 -12791 0
    12792 -12881 0
    12882 -12971 0
    12972 -13061 0
    13062 -13151 0
    13152 -13241 0
    13242 -13331 0
    13332 -13421 0
    13422 -13511 0
    13512 -13601 0
    13602 -13691 0
    13692 -13781 0
    13782 -13871 0
    13872 -13961 0
    13962 -14051 0
    14052 -14141 0
    14142 -14231 0
    14232 -14321 0
    14322 -14411 0
    14412 -14501 0
    14502 -14591 0
    14592 -14681 0
    14682 -14771 0
    14772 -14861 0
    14862 -14951 0
    14952 -15041 0
    15042 -15131 0
    15132 -15221 0
    15222 -15311 0
    15312 -15401 0
    15402 -15512 0
 $END
 $FMOBND
        -852       9
        -858      13
        -859      16
        -860      18
        -861      21
        -862      46
        -875      48
        -877      52
        -878      53
        -879      56
        -880      58
        -881      61
        -882      63
        -883      66
        -884      67
        -885      70
        -886      71
        -887      74
        -888     117
        -899     143
        -908     119
        -910     123
        -911     124
        -912     127
        -913     128
        -914     131
        -915     132
        -916     135
        -918     140
        -920     144
        -921     147
        -922     148
        -923     151
        -924     152
        -925     155
        -926     156
        -927     159
        -928     214
        -936     231
        -938     185
        -942     193
        -943     247
        -951     216
        -952     219
        -953     220
        -954     223
        -955     224
        -956     227
        -957     228
        -959     232
        -960     286
        -962     241
        -963     242
        -964     299
        -966     248
        -967     252
        -968     253
        -969     256
        -970     257
        -971     260
        -972     262
        -977     328
        -978     329
        -981     287
        -983     343
        -987     300
        -988     352
        -992     318
        -993     320
        -994     323
        -995     324
        -998     330
        -999     379
       -1000     380
       -1003     344
       -1004     345
       -1005     458
       -1006     396
       -1008     353
       -1009     358
       -1010     360
       -1012    1311
       -1013     411
       -1014     412
       -1017     381
       -1019     481
       -1020     425
       -1023     397
       -1024     432
       -1025     406
       -1026     499
       -1029     445
       -1030     446
       -1033     426
       -1034     518
       -1035     459
       -1037    1321
       -1038     469
       -1041     447
       -1042     548
       -1043     482
       -1046     460
       -1047     496
       -1048     578
       -1050     504
       -1051     505
       -1052     506
       -1055     517
       -1056     590
       -1057     519
       -1058     523
       -1059     525
       -1062    1330
       -1067     629
       -1073     568
       -1074     570
       -1075     573
       -1076     574
       -1077     577
       -1078     667
       -1079     581
       -1080     582
       -1082     589
       -1083     675
       -1084     593
       -1085     594
       -1086     597
       -1087     598
       -1088     601
       -1089     603
       -1107     651
       -1108     654
       -1109     655
       -1110     658
       -1111     659
       -1112     662
       -1113     663
       -1114     666
       -1115     669
       -1117     674
       -1118     678
       -1119     679
       -1120     682
       -1121     683
       -1122     686
       -1123     687
       -1125     691
       -1146     693
       -1147     741
       -1148     744
       -1149     745
       -1150     748
       -1151     749
       -1152     752
       -1153     753
       -1154     756
       -1155     758
       -1156     761
       -1157     763
       -1158     766
       -1159     767
       -1160     770
       -1161     771
       -1163     775
       -1180     777
       -1181     810
       -1182     813
       -1183     814
       -1184     817
       -1185     819
       -1186     822
       -1187     824
       -1189     828
       -1198     830
       -1199     846
       -1222      11
       -1224      49
       -1226     120
       -1243     690
       -1245     774
       -1247     827
       -1249     849
       -1288    1258
       -1289    1261
       -1292    1268
       -1293    1271
       -1296    1278
       -1297    1280
       -1299    1285
       -1336    1303
       -1337    1306
       -1340    1313
       -1341    1316
       -1344    1323
       -1345    1326
       -1348    1332
 $END
 $DATA
 EFMO 32 FRAGMENT MSN SINGLE PORE MODEL
 C1
 O.1-1    8
      N31 6

 C.1-1    6
      N31 6

 SI.1-1  14
      N31 6

 N.1-1    7
      N31 6

 H.1-1    1
      N31 6

 $END

 $FMOXYZ
   O   8.0           19.631471       -7.690724        9.331839
   O   8.0           19.680175       -7.042358       11.928786
   O   8.0           13.971105       -8.913388       13.061542
   O   8.0           14.381760       -9.757916       15.570075
   O   8.0           20.304640       -5.322308        7.357618
   O   8.0           18.030777       -6.242562        6.296435
   O   8.0           20.586346       -2.989976        9.265343
   O   8.0           19.475586       -5.203381       10.097822
   O   8.0           17.392872       -6.876197       10.545457
   O   8.0           14.876257       -7.672327       10.599048
   O   8.0           16.067758       -4.965025       14.659830
   O   8.0           14.666263       -7.174115       14.953447
   O   8.0           12.251396       -8.238154       15.000530
   O   8.0           10.478026      -10.231532       15.252557
   O   8.0           20.918564       -5.259446        2.335084
   O   8.0           19.855694       -5.055444        4.765997
   O   8.0           18.429059       -3.596732        6.529222
   O   8.0           17.965767       -3.296113        9.105493
   O   8.0           15.127795       -6.645365        6.130276
   O   8.0           19.079435       -2.958346       11.506342
   O   8.0           15.665961       -6.073107        8.647176
   O   8.0           18.064787       -1.924991       13.743910
   O   8.0           15.470017       -5.134727       11.157171
   O   8.0           13.878278       -5.283996       13.256347
   O   8.0           11.546707       -9.032984       11.407810
   O   8.0           13.757784       -4.840183       15.900416
   O   8.0           10.070209       -8.283828       13.483232
   O   8.0           12.773705       -3.254506       17.816743
   O   8.0            9.908083       -7.766534       16.090614
   O   8.0            8.907999       -6.114779       17.919958
   O   8.0            6.742348       -9.363705       13.241516
   O   8.0            7.518423       -9.668880       15.790592
   O   8.0           21.580199       -3.743198       -0.170708
   O   8.0           19.973716       -5.073948       -1.845523
   O   8.0           21.650662       -1.368093        1.589205
   O   8.0           20.287025       -2.875429        3.336392
   O   8.0           18.359168       -4.588395        2.612366
   O   8.0           19.904723       -0.213573        8.441430
   O   8.0           17.155337       -6.780838        3.510844
   O   8.0           17.625929       -1.234284        7.511202
   O   8.0           15.951864       -3.263185        7.445521
   O   8.0           19.953589        1.775950       10.572818
   O   8.0           13.836828       -4.643633        7.307797
   O   8.0           18.832713       -0.350768       11.695599
   O   8.0           13.294879       -7.165485        8.075093
   O   8.0           16.686125       -1.910765       11.467961
   O   8.0           14.363695       -2.922377       12.154374
   O   8.0           12.889568       -4.763438       10.851582
   O   8.0           16.058199       -0.197653       15.885591
   O   8.0           11.082545       -6.452451       11.846735
   O   8.0           14.365713       -2.265925       15.916766
   O   8.0            9.087054       -8.068015       11.040829
   O   8.0           11.881456       -3.097747       15.309780
   O   8.0            6.563283       -8.357822       10.257210
   O   8.0           10.371721       -5.140240       15.905728
   O   8.0            8.007598       -6.099182       15.387772
   O   8.0            5.914678       -7.636619       15.086599
   O   8.0            4.938385      -10.062244       15.081730
   O   8.0            2.588925      -11.239338       15.423376
   O   8.0           21.626684       -2.804850       -5.341454
   O   8.0           21.253869       -2.899790       -2.698825
   O   8.0           19.243432       -2.695992       -0.950920
   O   8.0           19.015534       -1.581825        1.420180
   O   8.0           17.198307       -5.025652       -1.084194
   O   8.0           20.140147       -0.209217        3.419214
   O   8.0           16.219912       -5.507003        1.354269
   O   8.0           19.262555       -0.033848        5.880375
   O   8.0           15.991429       -4.415307        3.795788
   O   8.0           17.873239        1.373427        7.739665
   O   8.0           14.406377       -2.971738        5.306297
   O   8.0           17.351609        1.428816       10.325049
   O   8.0           13.635939       -1.968017        7.640785
   O   8.0           18.397270        2.060663       12.714636
   O   8.0           14.576178       -1.395029       10.024782
   O   8.0           17.362046        3.350108       14.792185
   O   8.0           14.862293       -0.279152       12.454488
   O   8.0           10.976872       -5.745223        9.279667
   O   8.0           13.655996       -0.007634       14.787743
   O   8.0           10.440990       -3.947049       11.181991
   O   8.0           13.887717       -0.186320       17.446024
   O   8.0            8.052584       -6.314948        9.326051
   O   8.0            9.816969       -3.708632       13.726547
   O   8.0           14.481827        1.268604       19.558496
   O   8.0            7.265124       -6.368180       11.900020
   O   8.0            9.401953       -2.680840       16.146888
   O   8.0            6.009376       -5.250447       13.946819
   O   8.0            9.484828       -3.366057       18.708643
   O   8.0            4.127482       -9.520370       11.821951
   O   8.0            5.743007       -5.506694       16.622261
   O   8.0            2.785601       -8.951030       14.038936
   O   8.0            6.642380       -4.491142       18.894570
   O   8.0            3.147726       -8.927236       16.689075
   O   8.0            1.546162       -9.101917       18.823065
   O   8.0           -0.229359      -12.143205       14.863591
   O   8.0            0.367091      -11.358528       17.337642
   O   8.0           22.636766        1.828810       -4.133400
   O   8.0           21.478279       -0.573884       -3.922883
   O   8.0           19.282333       -2.086867       -4.307755
   O   8.0           21.086392        1.488591        0.817992
   O   8.0           17.972942       -4.367761       -3.871479
   O   8.0           19.534692       -0.054716       -0.652202
   O   8.0           17.149003       -1.163964       -0.438414
   O   8.0           21.050541        3.664739        2.808794
   O   8.0           15.620183       -3.242880        0.100377
   O   8.0           19.660689        2.142086        4.489622
   O   8.0           14.593081       -5.557825       -0.763364
   O   8.0           17.633300        0.535865        3.818359
   O   8.0           19.308497        4.571622        9.668330
   O   8.0           16.237389       -1.757225        3.794600
   O   8.0           16.980546        3.608723        8.815448
   O   8.0           14.089355       -2.930618        2.674082
   O   8.0           15.357791        1.481786        8.590315
   O   8.0           19.829995        6.687358       11.622043
   O   8.0           13.032839        0.342364        8.797597