 $CONTRL RUNTYP=energy 
         LOCAL=RUEDNBRG MAXIT=50 $END 
 $SYSTEM MWORDS=500 $END
 $GDDI NGROUP=1 $END
 $SCF DIRSCF=.TRUE. NPUNCH=0 $END
 $FMOPRP
    NGRFMO(1)=1, 1, 1, 0, 0,   0, 0, 0, 0, 0
    NPRINT=0
 $END
 $FMO
      nbody=3
      modesp=0
      RAFO(1)=.1, 1, 1
      MAXCAO=9
      MAXBND=76
      NLAYER=1
      NFRAG=20
      ICHARG(1)=   
                   0,  0,  0,  0,  0,  0,  0,  0,  0,  0,
                   0,  0,  0,  0,  0,  0,  0,  0,  0,  0
      FRGNAM(1)= 
                 Msn1a,  Msn1b,  FnGrp1, Msn2a,  Msn2b, 
                 Msn3a,  Msn3b,  Msn4a,  Msn4b,  Msn5a, 
                 Msn5b,  Msn6a,  Msn6b,  Msn7a,  Msn7b, 
                 Msn8a,  Msn8b,  Msn9a,  Msn9b,  Msn10a 
       INDAT(1)= 0
                 1     2     3     4     5     8
                10    12    16    18    19    22
               268   269   273   275   402   403
               406   407   411   416   417   438
               439   442   443   452   550   551
               553   554   555   556   557   577
               578   579   580     0
                24    26    32    34    36    44
                47    50    66    69   279   282
               290   421   422   426   427   431
               435   446   447   450   477   558
               559   560   561   562   563   581
               582   583     0
               412   566   571   572   573   574
               567   568   569   570   575   576
                 0
                 6    13    20    27   270   276
               404   405   408   409   410   413
               414   415   420   440   441   444
               453   456   458   460   552     0
                38    52    71    91   284   298
               418   419   423   424   425   428
               429   430   432   433   434   436
               437   445   448   449   451   465
               470   480   486   564     0
                21    30    31    42    46    49
                61    63    65    87    89   116
               118   119   146   178   179   204
               277   281   287   289   296   307
               319   345   459   463   467   476
               496   498   503   513   517     0
                 7     9    11    14    15    17
                23    25    33    35    37    51
                68    70    90   271   272   274
               278   283   297   454   455   457
               464   469   479   485     0
                28    29    41    43    45    48
                58    60    62    64    67    83
                85    86    88   114   115   117
               280   286   288   294   295   305
               306   318   461   462   468   474
               478   497     0
               110   112   141   143   144   145
               171   173   175   176   177   200
               202   203   227   317   331   332
               343   344   355   494   510   512
               516   525   540   565     0
                39    40    55    56    57    59
                79    81    82    84   105   107
               109   111   113   140   285   292
               293   303   304   315   316   466
               473   475   492   495     0
               137   139   142   166   168   170
               172   174   196   198   199   201
               222   224   225   226   242   329
               330   341   342   353   354   363
               508   511   522   524   528     0
                53    54    76    77    78    80
               101   103   104   106   108   133
               136   138   167   169   291   301
               302   313   314   328   471   472
               484   490   493   509     0
               135   161   163   165   192   194
               195   197   216   218   220   221
               223   238   240   241   255   256
               327   339   340   351   352   361
               362   369   506   520   523   527
               532   533     0
               156   188   190   211   213   215
               234   236   237   239   250   252
               253   254   263   337   349   359
               360   367   368   373   504   518
               529   531   536     0
                74    75    98    99   100   102
               129   131   132   134   158   160
               162   164   191   193   217   219
               300   311   312   325   326   338
               350   483   489   491   507   521
                 0
               231   233   235   249   251   260
               261   262   266   267   358   366
               372   375   387   388   389   390
               391   392   393   394   398   399
               400   401   530   538   539   545
               546   547   548   549     0
               128   130   157   159   185   187
               189   212   214   324   336   348
               380   381   382   383   384   385
               386   395   396   397   502   505
               519   541   542   543   544     0
                96    97   123   126   127   149
               150   152   153   154   155   182
               183   184   186   206   207   210
               310   321   323   334   335   346
               347   376   377   488   500   515
                 0
               205   208   209   228   229   230
               232   243   244   245   246   247
               248   257   258   259   264   265
               356   357   364   365   370   371
               374   378   379   526   534   535
               537   589   590   591   592     0
                72    73    92    93    94    95
               120   121   122   124   125   147
               148   151   180   181   299   308
               309   320   322   333   481   482
               487   499   501   514   584   585
               586   587   588     0
 $END
 $FMOBND
      -270      11
      -271     413
      -274      43
      -276      25
      -277     423
      -280      40
      -281      85
      -283      48
      -284      49
      -287     432
      -291      75
      -292      77
      -293      80
      -294      81
      -295      84
      -296     143
      -297      88
      -298      89
      -299      96
      -311     127
      -312     130
      -313     131
      -314     134
      -315     135
      -316     138
      -317     139
      -318     142
      -319     145
      -320     149
      -322     153
      -336     155
      -337     186
      -338     189
      -339     190
      -340     193
      -341     194
      -342     197
      -343     198
      -344     201
      -345     203
      -358     210
      -359     232
      -360     235
      -361     236
      -362     239
      -363     241
      -372     248
      -373     262
      -395     152
      -397     207
      -399     245
      -401     265
      -438     405
      -439     408
      -442     415
      -443     418
      -446     425
      -447     428
      -450     434
       -24     275
      -419     444
       -33     281
      -112     305
      -144     318
      -330     140
      -137     315
      -327     133
      -167     340
      -217     360
      -158     337
      -212     358
      -398     386
      -209     347
      -206     356
      -412     443
 $END
 $DATA
 FMO   calculation : 20 Fragment MSN   single pore
 C1 
 O.1-1    8
      N31 6 
   
 C.1-1    6
      N31 6 
   
 Si.1-1  14
      N31 6 
   
 H.1-1    1
      N31 6 
   
 N.1-1    7
      N31 6 
   
 $END
 $FMOXYZ
O   8   -9.190120   15.098840   -5.498450
O   8   -8.079500   16.885430   -3.926790
O   8   -6.138670   12.543630   -2.521660
O   8   -7.049320   14.407900   -4.120200
O   8   -6.823190   16.144360   -6.150700
O   8   -4.467310   18.672330  -10.267100
O   8   -1.113780   12.507040   -8.488410
O   8   -4.546530   13.519630   -4.400680
O   8   -2.088370   14.862590  -12.750570
O   8   -5.253290   15.042380   -2.306270
O   8   -2.686350   16.960050  -11.217170
O   8   -4.601230   16.946510   -0.649910
O   8   -1.863590   19.385880  -10.407320
O   8    1.368860   11.987580   -7.561060
O   8    0.897310   14.229680   -8.919150
O   8   -2.711320   13.382270    0.994370
O   8   -0.552870   15.489860  -10.718000
O   8   -2.904650   14.892710   -1.160850
O   8   -3.399680   16.808700   -2.980910
O   8    0.136690   20.101980   -4.958340
O   8    1.601430   12.637310   -4.529420
O   8   -0.573460   13.860340   -0.488010
O   8    0.802440   16.882870   -8.851990
O   8   -1.658110   15.856230    0.929580
O   8    1.195770   18.372380   -6.652750
O   8   -1.569130   17.649060    2.852500
O   8    2.803880   19.979600   -5.171140
O   8    0.405810   13.063920  -12.559640
O   8    1.654650   14.279150  -14.607230
O   8    4.209530   12.280730   -4.693090
O   8    3.056550   14.546670   -5.599270
O   8    0.278360   13.372320    4.667080
O   8    2.914620   16.458140   -7.398290
O   8   -0.290070   15.312690    3.064770
O   8   -0.639680   17.090610  -12.896100
O   8    0.587040   17.198860    1.397990
O   8    0.253540   19.342390  -13.998770
O   8    3.833740   20.618290   -2.124270
O   8    2.754230    9.314710  -14.960580
O   8    2.179060   11.746000  -14.015640
O   8    3.007240   13.699990  -12.373260
O   8    4.979260   13.117180   -0.397390
O   8    2.105320   15.627260  -10.799680
O   8    2.203970   14.418990    3.182860
O   8    3.487360   16.406380  -15.457970
O   8    4.234230   16.904050   -5.142000
O   8    1.176160   15.812050    5.203400
O   8    1.867360   17.289300  -13.582660
O   8    4.990790   18.699870   -3.455240
O   8    1.516470   17.734870    6.893450
O   8    0.926840   18.711300  -11.464420
O   8    6.512210   20.295360   -1.972850
O   8    4.113050    6.655300  -15.571000
O   8    6.104710    7.332010  -17.205280
O   8    4.863300    8.842890  -10.731660
O   8    4.000390   10.243170  -12.815360
O   8    4.512440   11.293870  -15.213680
O   8    3.745850   11.266520   -9.332140
O   8    4.178380   13.723150  -16.228600
O   8    3.808150   13.860720   -9.853790
O   8    7.498380   12.823470    0.418950
O   8    4.665360   15.645930  -11.601730
O   8    6.954200   14.450710   -1.616630
O   8    4.444460   17.664510  -13.306640
O   8    6.012580   16.242910   -3.302640
O   8    3.404030   15.806130    6.639510
O   8    3.076110   19.060060  -15.176740
O   8    2.722870   18.706180   -8.798760
O   8    3.036070   17.664130    4.734990
O   8    3.848690   21.067740   -9.229660
O   8    7.044480   21.274320    0.831740
O   8    5.670750   -3.295930  -17.348370
O   8    5.688840   -0.679920  -16.752960
O   8    5.825860    2.196040  -17.417750
O   8    5.674490    4.750690  -16.628650
O   8    6.640400    6.382830  -14.755250
O   8    5.724410    8.271390  -13.204990
O   8    7.785260   10.579720  -18.346360
O   8    6.525270   10.482640  -12.009940
O   8    6.358400   12.249140  -16.817550
O   8    5.941950   12.433240  -10.403310
O   8    6.080980   13.297150  -14.400360
O   8    5.313560   12.863920   -7.878130
O   8    6.249230   15.825000  -13.731150
O   8    5.222520   15.275930   -6.921230
O   8    6.515080   17.524010  -11.669140
O   8    7.658290   16.999240   -1.377150
O   8    5.106980   18.805250   -9.877340
O   8    8.141890   18.981680    0.217880
O   8    4.778510   19.464030   -7.275460
O   8    9.556040   20.752660    1.613840
O   8    6.686840   -8.007220  -17.886830
O   8    6.958080   -5.521890  -18.778960
O   8    7.285300   -4.691460  -14.690730
O   8    7.536470   -2.320640  -15.741510
O   8    7.625890   -1.682990  -18.303730
O   8    7.942550    0.813790  -19.151040
O   8    7.880950    0.611490  -15.418720
O   8    7.689040    3.195940  -15.826600
O   8    7.559010    3.957700  -18.366540
O   8    8.243570    4.818450  -10.404630
O   8    6.708710    6.000490  -19.788740
O   8    7.486470    6.574690  -12.238130
O   8    8.268830    8.368080  -14.027890
O   8    7.189660    7.824440   -8.947040
O   8    7.853010   10.370560  -15.704440
O   8    7.382840   10.414870   -9.537280
O   8    9.033420   12.462060  -16.862670
O   8    8.487240   12.131320  -11.242720
O   8    7.166300   11.230900   -4.371340
O   8    8.106840   14.124600  -12.897980
O   8    6.796280   13.476100   -5.737830
O   8    7.982430   14.844010  -15.479290
O   8    7.373590   14.501370   -8.157290
O   8    6.819550   16.916450   -9.140630
O   8    8.874260   16.501060    0.937900
O   8    7.734940   19.290380  -10.062810
O   8    6.728180   17.920710   -5.265790
O   8    6.922860   20.526670   -5.492060
O   8    8.719820   -7.393660  -19.523740
O   8    8.721850   -6.506660  -17.014930
O   8    9.449520   -4.141570  -16.109430
O   8   10.107180   -3.269610  -21.737710
O   8    9.058610   -3.030150  -13.688240
O   8    8.430550   -0.597580  -12.795010
O   8    9.901500   -0.361770  -17.753410
O   8    9.902710    1.937390  -16.566410
O   8    9.442120    2.378160  -21.176510
O   8    9.395930    2.261890  -13.981020
O   8    9.072490    4.881940  -20.363290
O   8    9.072250    4.603470  -12.910410
O   8    8.720080    6.313860  -18.114610
O   8   10.024080    6.572170  -11.397920
O   8    9.155200    8.281120  -16.529010
O   8    9.379280    8.765160  -10.126410
O   8   10.302210    9.937190  -14.784450
O   8    8.898960    9.449930   -7.628700
O   8    9.867110   12.198750  -13.498520
O   8    8.652070   11.794210   -6.498440
O   8   10.347250   13.983130  -11.528350
O   8    9.018210   13.152220   -4.248020
O   8    8.953060   15.561980   -9.969600
O   8    8.568610   15.589850   -3.421140
O   8    8.878060   16.574670   -7.523430
O   8    8.850550   18.980970   -6.493150
O   8    8.565350   19.205200   -3.813090
O   8    9.843710   -7.723450  -13.857020
O   8   11.016790   -6.250300  -15.668380
O   8   10.768900   -5.300970  -18.127540
O   8   11.083420   -2.978920  -19.293290
O   8   10.404800   -1.950420  -11.664440
O   8   11.866520   -1.341700  -21.209620
O   8   10.621230   -1.020300  -14.203230
O   8   11.887700    0.256360  -16.066560
O   8   11.748560    1.415080  -18.454630
O   8   10.270750    1.077450  -10.089120
O   8   11.353490    3.635530  -19.804410
O   8   10.847760    2.987370  -11.865160
O   8   10.815920    4.366290  -22.322420
O   8   11.274680    4.098450  -14.280410
O   8    8.990510    5.440770   -7.815410
O   8   10.181050    5.925530  -15.891050
O   8   10.862010    6.936720   -8.915590
O   8   11.188150    7.290380  -17.977960
O   8   11.919750    8.392650  -10.805480
O   8    8.895060    8.608990   -4.424010
O   8   11.527690   10.358130  -12.491280
O   8   10.590290   10.141580   -5.741100
O   8   12.215730   11.777190  -14.673330
O   8   10.668490   11.386340   -8.125510
O   8   10.122300   14.019600   -0.146630
O   8   10.697720   13.925790   -8.905100
O   8   10.802730   14.361100   -2.693290
O   8   11.540170   16.083840  -10.279570
O   8   10.490880   15.176570   -5.196090
O   8   11.053210   17.485720   -6.377030
O   8   10.262560   18.482440   -8.740700
O   8   10.175540   17.744690   -1.032980
O   8   11.121390   19.791710   -2.423930
O   8   12.488650   -7.873770  -14.153710
O   8   11.407810   -5.680980  -13.091710
O   8   12.434290   -5.073500  -20.188660
O   8   13.047340   -3.988220  -17.792140
O   8   13.190570   -0.654460  -13.900390
O   8   13.319920    1.940870  -20.473740
O   8   12.164380    0.686910  -11.886020
O   8   13.534220    3.431600  -18.309190
O   8   12.550060    2.461320   -9.931340
O   8   12.528120    4.982370  -16.443460
O   8   11.335640    4.366740   -8.576570
O   8   12.240260    6.563880  -14.301000
O   8   11.220860    6.034530   -6.470040
O   8   13.420210    8.481270  -12.937180
O   8   11.482480    7.904420   -4.626410
O   8   13.710910   10.308540  -10.976440
O   8   10.762320   10.000490   -3.112650
O   8   12.664030   12.281300   -9.558950
O   8   11.281100   12.041950   -1.523720
O   8   12.408500   13.065370   -7.039870
O   8   12.723710   14.190840   -0.847590
O   8   12.858250   15.538830   -6.328840
O   8   12.181790   16.846910   -4.084560
O   8   12.724660   17.776460   -1.724850
O   8   11.827000   19.467960    0.165860
O   8   13.567480   -4.208390  -13.539710
O   8   14.720270   -3.511900  -15.805970
O   8   14.196870   -1.618920  -17.621290
O   8   13.855470   -1.835040   -9.868660
O   8   14.669120   -0.138720  -11.727550
O   8   14.015580    1.796950  -13.410600
O   8   14.378640    1.606510   -5.657700
O   8   13.947740    2.867580  -15.785630
O   8   13.493810    3.168020   -7.594910
O   8   15.160860    5.006670  -16.850610
O   8   13.737650    4.826470   -9.685570
O   8   13.153160    3.893680   -4.102620
O   8   13.593950    5.955250  -12.100670
O   8   13.540410    6.281620   -5.225220
O   8   14.899870    6.721130  -14.336630
O   8   12.752360    8.151450   -6.926310
O   8   13.617390   10.207490   -8.310230
O   8   12.979160    9.965910   -1.649190
O   8   15.315360   11.875330   -9.513120
O   8   12.752640   11.651540   -3.710830
O   8   14.002770   13.592180   -4.987700
O   8   14.829390   14.117230   -7.497530
O   8   14.222130   15.812740   -2.728410
O   8   14.864110   -6.055510  -14.927220
O   8   16.195680   -4.117940  -13.651160
O   8   16.210950   -0.704810   -9.660600
O   8   15.749190    1.030610  -15.247610
O   8   15.238720    1.248070   -8.148420
O   8   15.952930    3.454030  -14.122690
O   8   16.003900    3.415630   -6.759690
O   8   15.407100    4.068020  -11.647810
O   8   15.623990    4.806630   -4.522880
O   8   15.715070    6.384310  -10.531470
O   8   14.093360    5.980240   -2.665360
O   8   14.717260    7.872020   -8.659260
O   8   15.150420    9.163150   -6.372810
O   8   15.176970   11.223110   -4.725040
O   8   14.837230   12.858610   -2.590280
O   8   17.539110   -4.116630   -9.425680
O   8   18.136610   -3.601670  -11.939320
O   8   17.293560   -1.712500  -13.589380
O   8   18.001970   -1.462110   -6.065490
O   8   17.757380    0.452720   -7.844760
O   8   17.055000    1.760230  -10.026110
O   8   17.757490    2.932490  -12.254190
O   8   18.019500    3.784880   -5.087360
O   8   17.253240    5.479050  -12.953030
O   8   17.052250    5.827250   -6.535580
O   8   17.308260    7.398940   -8.657640
O   8   16.317530    8.966030  -10.572900
O   8   14.696250    8.788340   -3.751810
O   8   17.158080    9.407340   -4.678520
O   8   18.888720   -5.916160  -10.841100
O   8   20.024730   -3.578600  -10.073610
O   8   20.069960    0.153990   -6.628030
O   8   19.064570    0.771890  -11.465470
O   8   19.379470    3.035330  -10.119610
O   8   18.410900    5.011180   -8.650280
O   8   19.425360    6.931620   -7.088600
O   8   21.003360   -3.533330   -7.615780
O   8   21.748400   -1.672600   -9.371570
O   8   19.541410    2.915460   -7.458490
O   8   21.048840    4.671850   -8.819680
Si 14   -7.769900   15.637670   -4.911310
Si 14   -5.737530   13.869850   -3.341220
Si 14   -2.928960   18.153090  -10.145060
Si 14    0.254260   13.150570   -7.882630
Si 14   -1.489290   16.112180  -11.897810
Si 14   -4.025370   15.915730   -1.755230
Si 14    0.788070   15.560970   -9.816670
Si 14   -1.962930   14.483460    0.087780
Si 14    1.403000   19.110350   -5.218580
Si 14    3.038590   13.398660   -4.445040
Si 14    1.886810   17.612510   -7.905690
Si 14   -0.734130   16.507360    2.066750
Si 14    1.807440   13.202030  -13.378750
Si 14    3.829870   15.791840   -6.252390
Si 14    0.850910   14.725580    4.031780
Si 14    0.596470   18.108170  -12.976620
Si 14    5.051820   19.536940   -2.078490
Si 14    3.351970   10.655100  -14.250430
Si 14    3.388060   14.712180  -11.180200
Si 14    6.403790   13.880350   -0.189420
Si 14    3.231220   17.607800  -14.387870
Si 14    5.495550   17.423740   -4.297860
Si 14    2.288030   16.748700    5.872590
Si 14    5.626920    6.275410  -16.043640
Si 14    5.263210    9.452970  -12.190670
Si 14    5.269240   12.637210  -15.664540
Si 14    4.690420   12.595130   -9.370980
Si 14    5.462310   16.648660  -12.571090
Si 14    7.292460   15.803980   -2.418800
Si 14    4.117080   19.511150   -8.796820
Si 14    8.055370   20.115110    1.369450
Si 14    6.616710   -2.000130  -17.047130
Si 14    6.670310    3.541950  -17.051310
Si 14    7.030640    7.395020  -13.568080
Si 14    7.743350   11.418740  -16.950170
Si 14    7.097580   11.382640  -10.812610
Si 14    7.100390   14.509280  -14.115020
Si 14    6.180870   14.005960   -7.154630
Si 14    6.546620   18.138740  -10.183740
Si 14    8.715570   17.566200   -0.309820
Si 14    7.753040   -6.870670  -18.292590
Si 14    8.344180   -3.548220  -15.068440
Si 14    8.700580   -0.606540  -18.838220
Si 14    8.716580    2.005550  -15.447820
Si 14    8.036600    5.266780  -19.166530
Si 14    8.705470    5.649270  -11.725330
Si 14    8.893810    9.227560  -15.231420
Si 14    8.193790    9.102450   -9.064020
Si 14    9.204490   13.095420  -12.308100
Si 14    7.903680   12.421880   -5.201470
Si 14    7.982760   15.881470   -8.703640
Si 14    7.779290   19.144590   -5.275290
Si 14    9.980960   -5.547780  -16.711330
Si 14   10.603410   -2.188220  -20.624530
Si 14    9.639180   -1.668820  -13.071000
Si 14   10.868110    0.813030  -17.213690
Si 14   10.162480    3.814040  -20.901170
Si 14   10.161740    3.468450  -13.256200
Si 14    9.812640    6.932680  -17.123110
Si 14   10.539380    7.660530  -10.333990
Si 14   10.967720   11.062370  -13.848850
Si 14    9.710380   10.686480   -6.997350
Si 14   10.402180   14.880470  -10.191800
Si 14    9.714050   14.554250   -3.890050
Si 14    9.758970   17.892850   -7.272620
Si 14   11.170160   -6.880420  -14.188730
Si 14   11.835050   -4.336640  -18.840160
Si 14   12.013910   -0.947240  -14.991520
Si 14   12.472050    2.608740  -19.249510
Si 14   11.446400    1.803710  -10.949520
Si 14   11.547400    5.383870  -15.207320
Si 14   10.597680    5.677210   -7.942580
Si 14   12.643240    9.393050  -11.825930
Si 14   10.433320    9.147880   -4.472290
Si 14   11.586000   12.676510   -8.404750
Si 14   11.216570   13.657010   -1.297850
Si 14   11.644740   16.257550   -5.510810
Si 14   11.456160   18.691710   -1.253780
Si 14   13.585660   -2.869070  -16.770370
Si 14   13.508900    0.400700  -12.729330
Si 14   13.791400    4.072210  -16.861640
Si 14   12.774660    3.716980   -8.952470
Si 14   13.533220    6.932530  -13.414340
Si 14   12.240850    7.078680   -5.796880
Si 14   13.823980   11.161460   -9.615110
Si 14   11.928320   10.916230   -2.492720
Si 14   13.525760   14.071570   -6.469420
Si 14   13.384450   17.188060   -3.082490
Si 14   14.833280   -4.462220  -14.499730
Si 14   15.114950   -1.304560  -10.704310
Si 14   14.919260    2.290090  -14.638550
Si 14   14.783780    2.360580   -7.043710
Si 14   14.569600    5.298430  -10.980660
Si 14   14.095280    5.222340   -4.139950
Si 14   14.053330    8.855260   -7.549510
Si 14   14.188730   12.313060   -4.017500
Si 14   16.837690   -2.994830  -12.692670
Si 14   16.549030    0.676190   -8.910430
Si 14   16.599660    3.966150  -12.744040
Si 14   16.653740    4.457860   -5.721280
Si 14   16.009740    7.657200   -9.602900
Si 14   15.528900    9.649720   -4.887740
Si 14   18.643620   -4.308500  -10.576130
Si 14   18.760990   -0.650340   -7.225390
Si 14   18.305190    2.126480  -10.965120
Si 14   18.030030    6.298350   -7.724180
Si 14   20.513020   -2.615320   -8.880500
Si 14   19.579230    3.902070   -8.779250
O   8    9.382710   -1.175810  -20.216930
O   8   12.358800   -2.318340  -15.825760
O   8   15.733540   -2.547020  -11.571670
O   8   19.256630   -1.676490   -8.403850
O   8   13.042730   -1.809580  -23.533030
O   8   14.049070   -2.860720  -21.270270
O   8   14.206670   -0.211590  -21.718420
O   8   14.971740    0.324240  -19.211360
O   8   15.873320    1.826140  -21.239080
O   8   16.165400   -2.057430  -19.368280
O   8   16.568200   -0.484180  -17.244270
O   8   18.199950    0.123720  -15.266160
O   8   17.461060    2.043110  -17.024420
O   8   19.010940   -2.401810  -15.494510
O   8   19.789340   -0.886310  -13.393200
O   8   21.543960   -0.171070  -11.529630
O   8   20.718440    1.603910  -13.377320
O   8   23.773760   -0.095480  -10.073590
O   8   21.480680    0.963240   -9.103630
Si 14   13.287960   -1.553940  -21.932990
Si 14   14.582900    0.957790  -20.663920
Si 14   15.464110   -0.958750  -18.357750
Si 14   16.989380    0.680150  -16.204100
Si 14   18.568600   -1.217440  -14.436930
Si 14   20.274510    0.317870  -12.427310
Si 14   22.133580   -0.254410  -10.023540
O   8   -6.109540   18.015770   -7.870970
O   8   -2.894370   12.125620   -5.935000
O   8   -2.866990   14.883760   -8.812790
O   8   -4.331440   16.188010   -7.029110
O   8   -5.170260   18.112260   -5.365070
O   8   -2.491650   12.205390   -3.272720
O   8   -2.060330   14.375480   -4.730100
O   8   -1.682320   16.040470   -6.724960
O   8   -2.689710   17.538980   -8.643400
O   8   -2.323370   18.405460   -4.830430
C   6    0.864940   11.635910   -1.300350
O   8   -0.148870   13.872060   -6.470670
O   8    0.150610   15.837590   -4.790820
O   8   -0.837860   17.378260   -2.872160
O   8   -2.629530   19.295300   -2.324640
O   8    1.012630   12.579770    1.311450
O   8    2.083950   14.112940   -0.642700
O   8    1.241090   15.827840   -2.409170
O   8    1.453460   17.978340   -4.030180
O   8   -0.220210   18.967540   -0.386910
O   8    3.875350   12.595050    2.329770
O   8    3.240810   14.106540   -2.981120
O   8    3.635720   16.167930   -1.341390
O   8    2.334870   18.168140   -0.285860
O   8    1.358500   19.751120    1.645260
O   8    3.856650   13.338480    4.945700
O   8    4.759690   15.037820    3.061170
O   8    4.154820   16.794340    1.150480
O   8    4.866510   18.480940   -0.834210
O   8    2.559520   20.203170    4.192940
O   8    6.225290   15.129000    0.858310
O   8    6.356870   17.092290    2.599480
O   8    4.932780   19.100090    3.566540
O   8    4.318480   19.509440    6.146610
O   8    6.917480   18.099350    4.999170
O   8    7.479730   19.477720    2.768090
Si 14   -5.612740   17.101420   -6.603300
Si 14   -3.015810   13.052070   -4.585650
Si 14   -2.905240   16.155490   -7.792390
Si 14   -0.956960   15.041490   -5.686440
Si 14   -2.310330   17.959860   -3.253150
Si 14    0.842220   13.126040   -0.229430
Si 14    0.501460   16.748220   -3.521550
Si 14    2.546680   15.057620   -1.858290
Si 14    1.015260   18.517730    0.591640
Si 14    3.688240   13.839950    3.380400
Si 14    3.753980   17.397210   -0.312040
Si 14    5.344560   16.000090    1.913930
Si 14    3.706430   19.124830    4.647830
Si 14    6.415210   18.445290    3.465920
H   1   -9.180010   14.649470   -6.331530
H   1   -5.047300   18.468320   -9.539780
H   1   -1.778810   13.122880   -8.782840
H   1   -2.634910   15.062750  -13.496750
H   1   -1.026520   19.181410  -10.814890
H   1    1.722450   11.968410   -6.676490
H   1   -0.725270   19.700050   -4.899970
H   1    0.820750   13.175430   -4.614020
H   1    3.526780   19.663520   -5.706500
H   1   -0.234880   13.765020  -12.622950
H   1    1.843680   15.197380  -14.431320
H   1    5.117890   12.552970   -4.781140
H   1    0.980250   19.662240  -14.522030
H   1    3.222680   20.549730   -2.850690
H   1    1.813810    9.248860  -15.047960
H   1    4.550120   13.202280   -1.241880
H   1    4.282190   15.886380  -15.393670
H   1    1.593730   18.283130  -10.936670
H   1    6.780820   20.569110   -1.100540
H   1    3.945670    7.552300  -15.295530
H   1    6.981770    7.697220  -17.126220
H   1    4.484900    9.465400  -10.116640
H   1    2.885640   11.375360   -8.936990
H   1    3.302350   13.704450  -15.853220
H   1    8.414330   12.962730    0.198580
H   1    3.779420   15.096350    6.126610
H   1    3.531220   19.149000  -16.001950
H   1    3.140770   21.523480   -8.796060
H   1    6.846020   21.979510    1.430440
H   1    6.106110   -4.083740  -17.661970
H   1    6.142440    0.122590  -16.503320
H   1    4.886990    2.277050  -17.506380
H   1    8.413150    9.870020  -18.410340
H   1    5.702530   19.655210   -7.161910
H   1   10.284030   20.342110    1.157220
H   1    6.865970   -5.394550  -19.712760
H   1    7.371130    1.175860  -18.480100
H   1    8.160240   -0.071680  -14.816110
H   1    8.901870    4.303440   -9.951570
H   1    6.132240    6.426860  -19.162150
H   1    6.509190    7.764680   -9.610460
H   1    9.763080   12.207830  -16.308920
H   1    7.669430   10.438500   -4.211670
H   1    8.160400   14.123700  -16.075500
H   1    8.116750   16.392670    1.505220
H   1    7.487040   20.184190  -10.253840
H   1    6.520940   20.898190   -4.716550
H   1    9.608540   -7.058000  -19.534220
H   1   10.469340   -4.144400  -21.671490
H   1    8.633710    0.148600  -12.243410
H   1    9.039570    1.924920  -20.441900
H   1    8.013150   19.239250   -3.035310
H   1   10.559540    0.419600   -9.464090
H   1   10.533360    3.931060  -23.114230
H   1    8.412570    6.030230   -8.293640
H   1   11.836660    6.599930  -18.053890
H   1    8.626860    8.020790   -5.118310
H   1   12.936210   12.121760  -14.164540
H   1    9.989430   14.936520    0.074940
H   1   11.378690   16.860230   -9.751560
H   1    9.573330   18.769540   -9.332380
H   1   10.426990   19.579210   -3.040680
H   1   12.538620   -8.483420  -13.427310
H   1   13.046500   -4.563070  -20.709700
H   1   13.033250   15.009440   -1.224340
H   1   12.742630   19.637520    0.336860
H   1   15.009580    0.996960   -5.286060
H   1   15.241920    5.622940  -16.128400
H   1   13.403490    3.163700   -4.660790
H   1   15.689080    6.442060  -13.882140
H   1   13.669780    9.548070   -2.155570
H   1   15.395680   12.565990   -8.862480
H   1   15.355610   14.904570   -7.490530
H   1   14.332800   15.158770   -3.412580
H   1   14.064720   -6.563690  -14.824290
H   1   13.424650    5.717540   -2.049430
H   1   14.241510   12.988920   -1.858590
H   1   18.733020    3.613340   -5.693950
H   1   17.399460    5.992610  -12.166310
H   1   15.900420    9.793160  -10.358830
H   1   14.546090    7.859890   -3.901380
H   1   17.551930    8.665760   -5.121010
H   1   18.114070   -6.436560  -11.029890
H   1   20.819170    0.250930   -7.208520
H   1   20.241180    6.570940   -7.414230