! Change NGROUP to reflect number of nodes you are running on
 $GDDI NGROUP=16 $END
! Change 1st and 2nd entry of NGRFMO(1) to reflect number of nodes you
! are running on
 $FMOPRP
    NGRFMO(1)= 16, 16, 0, 0, 0,   0, 0, 0, 0, 0
    NPRINT=0
 $END
 $SCF DIRSCF=.TRUE. DAMP=.TRUE. SHIFT=.TRUE. NPUNCH=0 $END
 $SYSTEM MWORDS=1900 MEMDDI=0 $END
 $LOCAL CVGLOC=1.0E-6 FCORE=.TRUE. $END
! Threaded integrals
 $INTGRL INTOMP=1 $END
 $CONTRL SCFTYP=RHF RUNTYP=ENERGY NPRINT=-5
         MPLEVL=0 ISPHER=1
         LOCAL=RUEDNBRG MAXIT=50 $END
 $FMO
     NBODY=2
     IEFMO=1
     RESDIM=0.5
! UNCOMMENT THE LINE BELOW FOR POST-HF RUNS
!    RCORSD=0.5
     MODEFM(1)=0, 0, 2, 1, 1
     RAFO(1)=.1, 1, 1
     MAXCAO=9
     MAXBND=94
     NLAYER=1
     NFRAG=1016
     FRGNAM(1)=
            wd0001,  wd0002,  wd0003,  wd0004,  wd0005,
            wd0006,  wd0007,  wd0008,  wd0009,  wd0010,
            wd0011,  wd0012,  wd0013,  wd0014,  wd0015,
            wd0016,  wd0017,  wd0018,  wd0019,  wd0020,
            wd0021,  wd0022,  wd0023,  wd0024,  wd0025,
            wd0026,  wd0027,  wd0028,  wd0029,  wd0030,
            wd0031,  wd0032,  wd0033,  wd0034,  wd0035,
            wd0036,  wd0037,  wd0038,  wd0039,  wd0040,
            wd0041,  wd0042,  wd0043,  wd0044,  wd0045,
            wd0046,  wd0047,  wd0048,  wd0049,  wd0050,
            wd0051,  wd0052,  wd0053,  wd0054,  wd0055,
            wd0056,  wd0057,  wd0058,  wd0059,  wd0060,
            wd0061,  wd0062,  wd0063,  wd0064,  wd0065,
            wd0066,  wd0067,  wd0068,  wd0069,  wd0070,
            wd0071,  wd0072,  wd0073,  wd0074,  wd0075,
            wd0076,  wd0077,  wd0078,  wd0079,  wd0080,
            wd0081,  wd0082,  wd0083,  wd0084,  wd0085,
            wd0086,  wd0087,  wd0088,  wd0089,  wd0090,
            wd0091,  wd0092,  wd0093,  wd0094,  wd0095,
            wd0096,  wd0097,  wd0098,  wd0099,  wd0100,
            wd0101,  wd0102,  wd0103,  wd0104,  wd0105,
            wd0106,  wd0107,  wd0108,  wd0109,  wd0110,
            wd0111,  wd0112,  wd0113,  wd0114,  wd0115,
            wd0116,  wd0117,  wd0118,  wd0119,  wd0120,
            wd0121,  wd0122,  wd0123,  wd0124,  wd0125,
            wd0126,  wd0127,  wd0128,  wd0129,  wd0130,
            wd0131,  wd0132,  wd0133,  wd0134,  wd0135,
            wd0136,  wd0137,  wd0138,  wd0139,  wd0140,
            wd0141,  wd0142,  wd0143,  wd0144,  wd0145,
            wd0146,  wd0147,  wd0148,  wd0149,  wd0150,
            wd0151,  wd0152,  wd0153,  wd0154,  wd0155,
            wd0156,  wd0157,  wd0158,  wd0159,  wd0160,
            wd0161,  wd0162,  wd0163,  wd0164,  wd0165,
            wd0166,  wd0167,  wd0168,  wd0169,  wd0170,
            wd0171,  wd0172,  wd0173,  wd0174,  wd0175,
            wd0176,  wd0177,  wd0178,  wd0179,  wd0180,
            wd0181,  wd0182,  wd0183,  wd0184,  wd0185,
            wd0186,  wd0187,  wd0188,  wd0189,  wd0190,
            wd0191,  wd0192,  wd0193,  wd0194,  wd0195,
            wd0196,  wd0197,  wd0198,  wd0199,  wd0200,
            wd0201,  wd0202,  wd0203,  wd0204,  wd0205,
            wd0206,  wd0207,  wd0208,  wd0209,  wd0210,
            wd0211,  wd0212,  wd0213,  wd0214,  wd0215,
            wd0216,  wd0217,  wd0218,  wd0219,  wd0220,
            wd0221,  wd0222,  wd0223,  wd0224,  wd0225,
            wd0226,  wd0227,  wd0228,  wd0229,  wd0230,
            wd0231,  wd0232,  wd0233,  wd0234,  wd0235,
            wd0236,  wd0237,  wd0238,  wd0239,  wd0240,
            wd0241,  wd0242,  wd0243,  wd0244,  wd0245,
            wd0246,  wd0247,  wd0248,  wd0249,  wd0250,
            wd0251,  wd0252,  wd0253,  wd0254,  wd0255,
            wd0256,  wd0257,  wd0258,  wd0259,  wd0260,
            wd0261,  wd0262,  wd0263,  wd0264,  wd0265,
            wd0266,  wd0267,  wd0268,  wd0269,  wd0270,
            wd0271,  wd0272,  wd0273,  wd0274,  wd0275,
            wd0276,  wd0277,  wd0278,  wd0279,  wd0280,
            wd0281,  wd0282,  wd0283,  wd0284,  wd0285,
            wd0286,  wd0287,  wd0288,  wd0289,  wd0290,
            wd0291,  wd0292,  wd0293,  wd0294,  wd0295,
            wd0296,  wd0297,  wd0298,  wd0299,  wd0300,
            wd0301,  wd0302,  wd0303,  wd0304,  wd0305,
            wd0306,  wd0307,  wd0308,  wd0309,  wd0310,
            wd0311,  wd0312,  wd0313,  wd0314,  wd0315,
            wd0316,  wd0317,  wd0318,  wd0319,  wd0320,
            wd0321,  wd0322,  wd0323,  wd0324,  wd0325,
            wd0326,  wd0327,  wd0328,  wd0329,  wd0330,
            wd0331,  wd0332,  wd0333,  wd0334,  wd0335,
            wd0336,  wd0337,  wd0338,  wd0339,  wd0340,
            wd0341,  wd0342,  wd0343,  wd0344,  wd0345,
            wd0346,  wd0347,  wd0348,  wd0349,  wd0350,
            wd0351,  wd0352,  wd0353,  wd0354,  wd0355,
            wd0356,  wd0357,  wd0358,  wd0359,  wd0360,
            wd0361,  wd0362,  wd0363,  wd0364,  wd0365,
            wd0366,  wd0367,  wd0368,  wd0369,  wd0370,
            wd0371,  wd0372,  wd0373,  wd0374,  wd0375,
            wd0376,  wd0377,  wd0378,  wd0379,  wd0380,
            wd0381,  wd0382,  wd0383,  wd0384,  wd0385,
            wd0386,  wd0387,  wd0388,  wd0389,  wd0390,
            wd0391,  wd0392,  wd0393,  wd0394,  wd0395,
            wd0396,  wd0397,  wd0398,  wd0399,  wd0400,
            wd0401,  wd0402,  wd0403,  wd0404,  wd0405,
            wd0406,  wd0407,  wd0408,  wd0409,  wd0410,
            wd0411,  wd0412,  wd0413,  wd0414,  wd0415,
            wd0416,  wd0417,  wd0418,  wd0419,  wd0420,
            wd0421,  wd0422,  wd0423,  wd0424,  wd0425,
            wd0426,  wd0427,  wd0428,  wd0429,  wd0430,
            wd0431,  wd0432,  wd0433,  wd0434,  wd0435,
            wd0436,  wd0437,  wd0438,  wd0439,  wd0440,
            wd0441,  wd0442,  wd0443,  wd0444,  wd0445,
            wd0446,  wd0447,  wd0448,  wd0449,  wd0450,
            wd0451,  wd0452,  wd0453,  wd0454,  wd0455,
            wd0456,  wd0457,  wd0458,  wd0459,  wd0460,
            wd0461,  wd0462,  wd0463,  wd0464,  wd0465,
            wd0466,  wd0467,  wd0468,  wd0469,  wd0470,
            wd0471,  wd0472,  wd0473,  wd0474,  wd0475,
            wd0476,  wd0477,  wd0478,  wd0479,  wd0480,
            wd0481,  wd0482,  wd0483,  wd0484,  wd0485,
            wd0486,  wd0487,  wd0488,  wd0489,  wd0490,
            wd0491,  wd0492,  wd0493,  wd0494,  wd0495,
            wd0496,  wd0497,  wd0498,  wd0499,  wd0500,
            wd0501,  wd0502,  wd0503,  wd0504,  wd0505,
            wd0506,  wd0507,  wd0508,  wd0509,  wd0510,
            wd0511,  wd0512,  wd0513,  wd0514,  wd0515,
            wd0516,  wd0517,  wd0518,  wd0519,  wd0520,
            wd0521,  wd0522,  wd0523,  wd0524,  wd0525,
            wd0526,  wd0527,  wd0528,  wd0529,  wd0530,
            wd0531,  wd0532,  wd0533,  wd0534,  wd0535,
            wd0536,  wd0537,  wd0538,  wd0539,  wd0540,
            wd0541,  wd0542,  wd0543,  wd0544,  wd0545,
            wd0546,  wd0547,  wd0548,  wd0549,  wd0550,
            wd0551,  wd0552,  wd0553,  wd0554,  wd0555,
            wd0556,  wd0557,  wd0558,  wd0559,  wd0560,
            wd0561,  wd0562,  wd0563,  wd0564,  wd0565,
            wd0566,  wd0567,  wd0568,  wd0569,  wd0570,
            wd0571,  wd0572,  wd0573,  wd0574,  wd0575,
            wd0576,  wd0577,  wd0578,  wd0579,  wd0580,
            wd0581,  wd0582,  wd0583,  wd0584,  wd0585,
            wd0586,  wd0587,  wd0588,  wd0589,  wd0590,
            wd0591,  wd0592,  wd0593,  wd0594,  wd0595,
            wd0596,  wd0597,  wd0598,  wd0599,  wd0600,
            wd0601,  wd0602,  wd0603,  wd0604,  wd0605,
            wd0606,  wd0607,  wd0608,  wd0609,  wd0610,
            wd0611,  wd0612,  wd0613,  wd0614,  wd0615,
            wd0616,  wd0617,  wd0618,  wd0619,  wd0620,
            wd0621,  wd0622,  wd0623,  wd0624,  wd0625,
            wd0626,  wd0627,  wd0628,  wd0629,  wd0630,
            wd0631,  wd0632,  wd0633,  wd0634,  wd0635,
            wd0636,  wd0637,  wd0638,  wd0639,  wd0640,
            wd0641,  wd0642,  wd0643,  wd0644,  wd0645,
            wd0646,  wd0647,  wd0648,  wd0649,  wd0650,
            wd0651,  wd0652,  wd0653,  wd0654,  wd0655,
            wd0656,  wd0657,  wd0658,  wd0659,  wd0660,
            wd0661,  wd0662,  wd0663,  wd0664,  wd0665,
            wd0666,  wd0667,  wd0668,  wd0669,  wd0670,
            wd0671,  wd0672,  wd0673,  wd0674,  wd0675,
            wd0676,  wd0677,  wd0678,  wd0679,  wd0680,
            wd0681,  wd0682,  wd0683,  wd0684,  wd0685,
            wd0686,  wd0687,  wd0688,  wd0689,  wd0690,
            wd0691,  wd0692,  wd0693,  wd0694,  wd0695,
            wd0696,  wd0697,  wd0698,  wd0699,  wd0700,
            wd0701,  wd0702,  wd0703,  wd0704,  wd0705,
            wd0706,  wd0707,  wd0708,  wd0709,  wd0710,
            wd0711,  wd0712,  wd0713,  wd0714,  wd0715,
            wd0716,  wd0717,  wd0718,  wd0719,  wd0720,
            wd0721,  wd0722,  wd0723,  wd0724,  wd0725,
            wd0726,  wd0727,  wd0728,  wd0729,  wd0730,
            wd0731,  wd0732,  wd0733,  wd0734,  wd0735,
            wd0736,  wd0737,  wd0738,  wd0739,  wd0740,
            wd0741,  wd0742,  wd0743,  wd0744,  wd0745,
            wd0746,  wd0747,  wd0748,  wd0749,  wd0750,
            wd0751,  wd0752,  wd0753,  wd0754,  wd0755,
            wd0756,  wd0757,  wd0758,  wd0759,  wd0760,
            wd0761,  wd0762,  wd0763,  wd0764,  wd0765,
            wd0766,  wd0767,  wd0768,  wd0769,  wd0770,
            wd0771,  wd0772,  wd0773,  wd0774,  wd0775,
            wd0776,  wd0777,  wd0778,  wd0779,  wd0780,
            wd0781,  wd0782,  wd0783,  wd0784,  wd0785,
            wd0786,  wd0787,  wd0788,  wd0789,  wd0790,
            wd0791,  wd0792,  wd0793,  wd0794,  wd0795,
            wd0796,  wd0797,  wd0798,  wd0799,  wd0800,
            wd0801,  wd0802,  wd0803,  wd0804,  wd0805,
            wd0806,  wd0807,  wd0808,  wd0809,  wd0810,
            wd0811,  wd0812,  wd0813,  wd0814,  wd0815,
            wd0816,  wd0817,  wd0818,  wd0819,  wd0820,
            wd0821,  wd0822,  wd0823,  wd0824,  wd0825,
            wd0826,  wd0827,  wd0828,  wd0829,  wd0830,
            wd0831,  wd0832,  wd0833,  wd0834,  wd0835,
            wd0836,  wd0837,  wd0838,  wd0839,  wd0840,
            wd0841,  wd0842,  wd0843,  wd0844,  wd0845,
            wd0846,  wd0847,  wd0848,  wd0849,  wd0850,
            wd0851,  wd0852,  wd0853,  wd0854,  wd0855,
            wd0856,  wd0857,  wd0858,  wd0859,  wd0860,
            wd0861,  wd0862,  wd0863,  wd0864,  wd0865,
            wd0866,  wd0867,  wd0868,  wd0869,  wd0870,
            wd0871,  wd0872,  wd0873,  wd0874,  wd0875,
            wd0876,  wd0877,  wd0878,  wd0879,  wd0880,
            wd0881,  wd0882,  wd0883,  wd0884,  wd0885,
            wd0886,  wd0887,  wd0888,  wd0889,  wd0890,
            wd0891,  wd0892,  wd0893,  wd0894,  wd0895,
            wd0896,  wd0897,  wd0898,  wd0899,  wd0900,
            wd0901,  wd0902,  wd0903,  wd0904,  wd0905,
            wd0906,  wd0907,  wd0908,  wd0909,  wd0910,
            wd0911,  wd0912,  wd0913,  wd0914,  wd0915,
            wd0916,  wd0917,  wd0918,  wd0919,  wd0920,
            wd0921,  wd0922,  wd0923,  wd0924,  wd0925,
            wd0926,  wd0927,  wd0928,  wd0929,  wd0930,
            wd0931,  wd0932,  wd0933,  wd0934,  wd0935,
            wd0936,  wd0937,  wd0938,  wd0939,  wd0940,
            wd0941,  wd0942,  wd0943,  wd0944,  wd0945,
            wd0946,  wd0947,  wd0948,  wd0949,  wd0950,
            wd0951,  wd0952,  wd0953,  wd0954,  wd0955,
            wd0956,  wd0957,  wd0958,  wd0959,  wd0960,
            wd0961,  wd0962,  wd0963,  wd0964,  wd0965,
            wd0966,  wd0967,  wd0968,  wd0969,  wd0970,
            wd0971,  wd0972,  wd0973,  wd0974,  wd0975,
            wd0976,  wd0977,  wd0978,  wd0979,  wd0980,
            wd0981,  wd0982,  wd0983,  wd0984,  wd0985,
            wd0986,  wd0987,  wd0988,  wd0989,  wd0990,
            wd0991,  wd0992,  wd0993,  wd0994,  wd0995,
            wd0996,  wd0997,  wd0998,  wd0999,  wd1000,
            Msn1, FnGrp1,   Msn2,   Msn3,   Msn4,
            Msn5,   Msn6,   Msn7,   Msn8,   Msn9,
           Msn10,  Msn11,  Msn12, FnGrp2,  Msn13,
           Msn14
      INDAT(1)=
                 0  1  2  3  4  5  6
                 0  7  8  9  10  11  12
                 0  13  14  15  16  17  18
                 0  19  20  21  22  23  24
                 0  25  26  27  28  29  30
                 0  31  32  33  34  35  36
                 0  37  38  39  40  41  42
                 0  43  44  45  46  47  48
                 0  49  50  51  52  53  54
                 0  55  56  57  58  59  60
                 0  61  62  63  64  65  66
                 0  67  68  69  70  71  72
                 0  73  74  75  76  77  78
                 0  79  80  81  82  83  84
                 0  85  86  87  88  89  90
                 0  91  92  93  94  95  96
                 0  97  98  99  100  101  102
                 0  103  104  105  106  107  108
                 0  109  110  111  112  113  114
                 0  115  116  117  118  119  120
                 0  121  122  123  124  125  126
                 0  127  128  129  130  131  132
                 0  133  134  135  136  137  138
                 0  139  140  141  142  143  144
                 0  145  146  147  148  149  150
                 0  151  152  153  154  155  156
                 0  157  158  159  160  161  162
                 0  163  164  165  166  167  168
                 0  169  170  171  172  173  174
                 0  175  176  177  178  179  180
                 0  181  182  183  184  185  186
                 0  187  188  189  190  191  192
                 0  193  194  195  196  197  198
                 0  199  200  201  202  203  204
                 0  205  206  207  208  209  210
                 0  211  212  213  214  215  216
                 0  217  218  219  220  221  222
                 0  223  224  225  226  227  228
                 0  229  230  231  232  233  234
                 0  235  236  237  238  239  240
                 0  241  242  243  244  245  246
                 0  247  248  249  250  251  252
                 0  253  254  255  256  257  258
                 0  259  260  261  262  263  264
                 0  265  266  267  268  269  270
                 0  271  272  273  274  275  276
                 0  277  278  279  280  281  282
                 0  283  284  285  286  287  288
                 0  289  290  291  292  293  294
                 0  295  296  297  298  299  300
                 0  301  302  303  304  305  306
                 0  307  308  309  310  311  312
                 0  313  314  315  316  317  318
                 0  319  320  321  322  323  324
                 0  325  326  327  328  329  330
                 0  331  332  333  334  335  336
                 0  337  338  339  340  341  342
                 0  343  344  345  346  347  348
                 0  349  350  351  352  353  354
                 0  355  356  357  358  359  360
                 0  361  362  363  364  365  366
                 0  367  368  369  370  371  372
                 0  373  374  375  376  377  378
                 0  379  380  381  382  383  384
                 0  385  386  387  388  389  390
                 0  391  392  393  394  395  396
                 0  397  398  399  400  401  402
                 0  403  404  405  406  407  408
                 0  409  410  411  412  413  414
                 0  415  416  417  418  419  420
                 0  421  422  423  424  425  426
                 0  427  428  429  430  431  432
                 0  433  434  435  436  437  438
                 0  439  440  441  442  443  444
                 0  445  446  447  448  449  450
                 0  451  452  453  454  455  456
                 0  457  458  459  460  461  462
                 0  463  464  465  466  467  468
                 0  469  470  471  472  473  474
                 0  475  476  477  478  479  480
                 0  481  482  483  484  485  486
                 0  487  488  489  490  491  492
                 0  493  494  495  496  497  498
                 0  499  500  501  502  503  504
                 0  505  506  507  508  509  510
                 0  511  512  513  514  515  516
                 0  517  518  519  520  521  522
                 0  523  524  525  526  527  528
                 0  529  530  531  532  533  534
                 0  535  536  537  538  539  540
                 0  541  542  543  544  545  546
                 0  547  548  549  550  551  552
                 0  553  554  555  556  557  558
                 0  559  560  561  562  563  564
                 0  565  566  567  568  569  570
                 0  571  572  573  574  575  576
                 0  577  578  579  580  581  582
                 0  583  584  585  586  587  588
                 0  589  590  591  592  593  594
                 0  595  596  597  598  599  600
                 0  601  602  603  604  605  606
                 0  607  608  609  610  611  612
                 0  613  614  615  616  617  618
                 0  619  620  621  622  623  624
                 0  625  626  627  628  629  630
                 0  631  632  633  634  635  636
                 0  637  638  639  640  641  642
                 0  643  644  645  646  647  648
                 0  649  650  651  652  653  654
                 0  655  656  657  658  659  660
                 0  661  662  663  664  665  666
                 0  667  668  669  670  671  672
                 0  673  674  675  676  677  678
                 0  679  680  681  682  683  684
                 0  685  686  687  688  689  690
                 0  691  692  693  694  695  696
                 0  697  698  699  700  701  702
                 0  703  704  705  706  707  708
                 0  709  710  711  712  713  714
                 0  715  716  717  718  719  720
                 0  721  722  723  724  725  726
                 0  727  728  729  730  731  732
                 0  733  734  735  736  737  738
                 0  739  740  741  742  743  744
                 0  745  746  747  748  749  750
                 0  751  752  753  754  755  756
                 0  757  758  759  760  761  762
                 0  763  764  765  766  767  768
                 0  769  770  771  772  773  774
                 0  775  776  777  778  779  780
                 0  781  782  783  784  785  786
                 0  787  788  789  790  791  792
                 0  793  794  795  796  797  798
                 0  799  800  801  802  803  804
                 0  805  806  807  808  809  810
                 0  811  812  813  814  815  816
                 0  817  818  819  820  821  822
                 0  823  824  825  826  827  828
                 0  829  830  831  832  833  834
                 0  835  836  837  838  839  840
                 0  841  842  843  844  845  846
                 0  847  848  849  850  851  852
                 0  853  854  855  856  857  858
                 0  859  860  861  862  863  864
                 0  865  866  867  868  869  870
                 0  871  872  873  874  875  876
                 0  877  878  879  880  881  882
                 0  883  884  885  886  887  888
                 0  889  890  891  892  893  894
                 0  895  896  897  898  899  900
                 0  901  902  903  904  905  906
                 0  907  908  909  910  911  912
                 0  913  914  915  916  917  918
                 0  919  920  921  922  923  924
                 0  925  926  927  928  929  930
                 0  931  932  933  934  935  936
                 0  937  938  939  940  941  942
                 0  943  944  945  946  947  948
                 0  949  950  951  952  953  954
                 0  955  956  957  958  959  960
                 0  961  962  963  964  965  966
                 0  967  968  969  970  971  972
                 0  973  974  975  976  977  978
                 0  979  980  981  982  983  984
                 0  985  986  987  988  989  990
                 0  991  992  993  994  995  996
                 0  997  998  999  1000  1001  1002
                 0  1003  1004  1005  1006  1007  1008
                 0  1009  1010  1011  1012  1013  1014
                 0  1015  1016  1017  1018  1019  1020
                 0  1021  1022  1023  1024  1025  1026
                 0  1027  1028  1029  1030  1031  1032
                 0  1033  1034  1035  1036  1037  1038
                 0  1039  1040  1041  1042  1043  1044
                 0  1045  1046  1047  1048  1049  1050
                 0  1051  1052  1053  1054  1055  1056
                 0  1057  1058  1059  1060  1061  1062
                 0  1063  1064  1065  1066  1067  1068
                 0  1069  1070  1071  1072  1073  1074
                 0  1075  1076  1077  1078  1079  1080
                 0  1081  1082  1083  1084  1085  1086
                 0  1087  1088  1089  1090  1091  1092
                 0  1093  1094  1095  1096  1097  1098
                 0  1099  1100  1101  1102  1103  1104
                 0  1105  1106  1107  1108  1109  1110
                 0  1111  1112  1113  1114  1115  1116
                 0  1117  1118  1119  1120  1121  1122
                 0  1123  1124  1125  1126  1127  1128
                 0  1129  1130  1131  1132  1133  1134
                 0  1135  1136  1137  1138  1139  1140
                 0  1141  1142  1143  1144  1145  1146
                 0  1147  1148  1149  1150  1151  1152
                 0  1153  1154  1155  1156  1157  1158
                 0  1159  1160  1161  1162  1163  1164
                 0  1165  1166  1167  1168  1169  1170
                 0  1171  1172  1173  1174  1175  1176
                 0  1177  1178  1179  1180  1181  1182
                 0  1183  1184  1185  1186  1187  1188
                 0  1189  1190  1191  1192  1193  1194
                 0  1195  1196  1197  1198  1199  1200
                 0  1201  1202  1203  1204  1205  1206
                 0  1207  1208  1209  1210  1211  1212
                 0  1213  1214  1215  1216  1217  1218
                 0  1219  1220  1221  1222  1223  1224
                 0  1225  1226  1227  1228  1229  1230
                 0  1231  1232  1233  1234  1235  1236
                 0  1237  1238  1239  1240  1241  1242
                 0  1243  1244  1245  1246  1247  1248
                 0  1249  1250  1251  1252  1253  1254
                 0  1255  1256  1257  1258  1259  1260
                 0  1261  1262  1263  1264  1265  1266
                 0  1267  1268  1269  1270  1271  1272
                 0  1273  1274  1275  1276  1277  1278
                 0  1279  1280  1281  1282  1283  1284
                 0  1285  1286  1287  1288  1289  1290
                 0  1291  1292  1293  1294  1295  1296
                 0  1297  1298  1299  1300  1301  1302
                 0  1303  1304  1305  1306  1307  1308
                 0  1309  1310  1311  1312  1313  1314
                 0  1315  1316  1317  1318  1319  1320
                 0  1321  1322  1323  1324  1325  1326
                 0  1327  1328  1329  1330  1331  1332
                 0  1333  1334  1335  1336  1337  1338
                 0  1339  1340  1341  1342  1343  1344
                 0  1345  1346  1347  1348  1349  1350
                 0  1351  1352  1353  1354  1355  1356
                 0  1357  1358  1359  1360  1361  1362
                 0  1363  1364  1365  1366  1367  1368
                 0  1369  1370  1371  1372  1373  1374
                 0  1375  1376  1377  1378  1379  1380
                 0  1381  1382  1383  1384  1385  1386
                 0  1387  1388  1389  1390  1391  1392
                 0  1393  1394  1395  1396  1397  1398
                 0  1399  1400  1401  1402  1403  1404
                 0  1405  1406  1407  1408  1409  1410
                 0  1411  1412  1413  1414  1415  1416
                 0  1417  1418  1419  1420  1421  1422
                 0  1423  1424  1425  1426  1427  1428
                 0  1429  1430  1431  1432  1433  1434
                 0  1435  1436  1437  1438  1439  1440
                 0  1441  1442  1443  1444  1445  1446
                 0  1447  1448  1449  1450  1451  1452
                 0  1453  1454  1455  1456  1457  1458
                 0  1459  1460  1461  1462  1463  1464
                 0  1465  1466  1467  1468  1469  1470
                 0  1471  1472  1473  1474  1475  1476
                 0  1477  1478  1479  1480  1481  1482
                 0  1483  1484  1485  1486  1487  1488
                 0  1489  1490  1491  1492  1493  1494
                 0  1495  1496  1497  1498  1499  1500
                 0  1501  1502  1503  1504  1505  1506
                 0  1507  1508  1509  1510  1511  1512
                 0  1513  1514  1515  1516  1517  1518
                 0  1519  1520  1521  1522  1523  1524
                 0  1525  1526  1527  1528  1529  1530
                 0  1531  1532  1533  1534  1535  1536
                 0  1537  1538  1539  1540  1541  1542
                 0  1543  1544  1545  1546  1547  1548
                 0  1549  1550  1551  1552  1553  1554
                 0  1555  1556  1557  1558  1559  1560
                 0  1561  1562  1563  1564  1565  1566
                 0  1567  1568  1569  1570  1571  1572
                 0  1573  1574  1575  1576  1577  1578
                 0  1579  1580  1581  1582  1583  1584
                 0  1585  1586  1587  1588  1589  1590
                 0  1591  1592  1593  1594  1595  1596
                 0  1597  1598  1599  1600  1601  1602
                 0  1603  1604  1605  1606  1607  1608
                 0  1609  1610  1611  1612  1613  1614
                 0  1615  1616  1617  1618  1619  1620
                 0  1621  1622  1623  1624  1625  1626
                 0  1627  1628  1629  1630  1631  1632
                 0  1633  1634  1635  1636  1637  1638
                 0  1639  1640  1641  1642  1643  1644
                 0  1645  1646  1647  1648  1649  1650
                 0  1651  1652  1653  1654  1655  1656
                 0  1657  1658  1659  1660  1661  1662
                 0  1663  1664  1665  1666  1667  1668
                 0  1669  1670  1671  1672  1673  1674
                 0  1675  1676  1677  1678  1679  1680
                 0  1681  1682  1683  1684  1685  1686
                 0  1687  1688  1689  1690  1691  1692
                 0  1693  1694  1695  1696  1697  1698
                 0  1699  1700  1701  1702  1703  1704
                 0  1705  1706  1707  1708  1709  1710
                 0  1711  1712  1713  1714  1715  1716
                 0  1717  1718  1719  1720  1721  1722
                 0  1723  1724  1725  1726  1727  1728
                 0  1729  1730  1731  1732  1733  1734
                 0  1735  1736  1737  1738  1739  1740
                 0  1741  1742  1743  1744  1745  1746
                 0  1747  1748  1749  1750  1751  1752
                 0  1753  1754  1755  1756  1757  1758
                 0  1759  1760  1761  1762  1763  1764
                 0  1765  1766  1767  1768  1769  1770
                 0  1771  1772  1773  1774  1775  1776
                 0  1777  1778  1779  1780  1781  1782
                 0  1783  1784  1785  1786  1787  1788
                 0  1789  1790  1791  1792  1793  1794
                 0  1795  1796  1797  1798  1799  1800
                 0  1801  1802  1803  1804  1805  1806
                 0  1807  1808  1809  1810  1811  1812
                 0  1813  1814  1815  1816  1817  1818
                 0  1819  1820  1821  1822  1823  1824
                 0  1825  1826  1827  1828  1829  1830
                 0  1831  1832  1833  1834  1835  1836
                 0  1837  1838  1839  1840  1841  1842
                 0  1843  1844  1845  1846  1847  1848
                 0  1849  1850  1851  1852  1853  1854
                 0  1855  1856  1857  1858  1859  1860
                 0  1861  1862  1863  1864  1865  1866
                 0  1867  1868  1869  1870  1871  1872
                 0  1873  1874  1875  1876  1877  1878
                 0  1879  1880  1881  1882  1883  1884
                 0  1885  1886  1887  1888  1889  1890
                 0  1891  1892  1893  1894  1895  1896
                 0  1897  1898  1899  1900  1901  1902
                 0  1903  1904  1905  1906  1907  1908
                 0  1909  1910  1911  1912  1913  1914
                 0  1915  1916  1917  1918  1919  1920
                 0  1921  1922  1923  1924  1925  1926
                 0  1927  1928  1929  1930  1931  1932
                 0  1933  1934  1935  1936  1937  1938
                 0  1939  1940  1941  1942  1943  1944
                 0  1945  1946  1947  1948  1949  1950
                 0  1951  1952  1953  1954  1955  1956
                 0  1957  1958  1959  1960  1961  1962
                 0  1963  1964  1965  1966  1967  1968
                 0  1969  1970  1971  1972  1973  1974
                 0  1975  1976  1977  1978  1979  1980
                 0  1981  1982  1983  1984  1985  1986
                 0  1987  1988  1989  1990  1991  1992
                 0  1993  1994  1995  1996  1997  1998
                 0  1999  2000  2001  2002  2003  2004
                 0  2005  2006  2007  2008  2009  2010
                 0  2011  2012  2013  2014  2015  2016
                 0  2017  2018  2019  2020  2021  2022
                 0  2023  2024  2025  2026  2027  2028
                 0  2029  2030  2031  2032  2033  2034
                 0  2035  2036  2037  2038  2039  2040
                 0  2041  2042  2043  2044  2045  2046
                 0  2047  2048  2049  2050  2051  2052
                 0  2053  2054  2055  2056  2057  2058
                 0  2059  2060  2061  2062  2063  2064