! Change NGROUP to reflect number of nodes you are running on
 $GDDI NGROUP=6 $END
! Change 1st and 2nd entry of NGRFMO(1) to reflect number of nodes you
! are running on
 $FMOPRP
    NGRFMO(1)= 6, 6, 0, 0, 0,   0, 0, 0, 0, 0
    NPRINT=0
 $END
 $SCF DIRSCF=.TRUE. DAMP=.TRUE. SHIFT=.TRUE. NPUNCH=0 $END
 $SYSTEM MWORDS=1500 MEMDDI=0 $END
 $LOCAL CVGLOC=1.0E-6 FCORE=.TRUE. $END
! Threaded integrals
 $INTGRL INTOMP=1 $END
 $CONTRL SCFTYP=RHF RUNTYP=ENERGY NPRINT=-5
         MPLEVL=0 ISPHER=1
         LOCAL=RUEDNBRG MAXIT=50 $END
 $FMO
     NBODY=2
     IEFMO=1
     RESDIM=0.5
! UNCOMMENT THE LINE BELOW FOR POST-HF RUNS
!    RCORSD=0.5
     MODEFM(1)=0, 0, 2, 1, 1
     RAFO(1)=.1, 1, 1
     MAXCAO=9
     MAXBND=26
     NLAYER=1
     NFRAG=506
     FRGNAM(1)=
            wo0001,  wo0002,  wo0003,  wo0004,  wo0005,
            wo0006,  wo0007,  wo0008,  wo0009,  wo0010,
            wo0011,  wo0012,  wo0013,  wo0014,  wo0015,
            wo0016,  wo0017,  wo0018,  wo0019,  wo0020,
            wo0021,  wo0022,  wo0023,  wo0024,  wo0025,
            wo0026,  wo0027,  wo0028,  wo0029,  wo0030,
            wo0031,  wo0032,  wo0033,  wo0034,  wo0035,
            wo0036,  wo0037,  wo0038,  wo0039,  wo0040,
            wo0041,  wo0042,  wo0043,  wo0044,  wo0045,
            wo0046,  wo0047,  wo0048,  wo0049,  wo0050,
            wo0051,  wo0052,  wo0053,  wo0054,  wo0055,
            wo0056,  wo0057,  wo0058,  wo0059,  wo0060,
            wo0061,  wo0062,  wo0063,  wo0064,  wo0065,
            wo0066,  wo0067,  wo0068,  wo0069,  wo0070,
            wo0071,  wo0072,  wo0073,  wo0074,  wo0075,
            wo0076,  wo0077,  wo0078,  wo0079,  wo0080,
            wo0081,  wo0082,  wo0083,  wo0084,  wo0085,
            wo0086,  wo0087,  wo0088,  wo0089,  wo0090,
            wo0091,  wo0092,  wo0093,  wo0094,  wo0095,
            wo0096,  wo0097,  wo0098,  wo0099,  wo0100,
            wo0101,  wo0102,  wo0103,  wo0104,  wo0105,
            wo0106,  wo0107,  wo0108,  wo0109,  wo0110,
            wo0111,  wo0112,  wo0113,  wo0114,  wo0115,
            wo0116,  wo0117,  wo0118,  wo0119,  wo0120,
            wo0121,  wo0122,  wo0123,  wo0124,  wo0125,
            wo0126,  wo0127,  wo0128,  wo0129,  wo0130,
            wo0131,  wo0132,  wo0133,  wo0134,  wo0135,
            wo0136,  wo0137,  wo0138,  wo0139,  wo0140,
            wo0141,  wo0142,  wo0143,  wo0144,  wo0145,
            wo0146,  wo0147,  wo0148,  wo0149,  wo0150,
            wo0151,  wo0152,  wo0153,  wo0154,  wo0155,
            wo0156,  wo0157,  wo0158,  wo0159,  wo0160,
            wo0161,  wo0162,  wo0163,  wo0164,  wo0165,
            wo0166,  wo0167,  wo0168,  wo0169,  wo0170,
            wo0171,  wo0172,  wo0173,  wo0174,  wo0175,
            wo0176,  wo0177,  wo0178,  wo0179,  wo0180,
            wo0181,  wo0182,  wo0183,  wo0184,  wo0185,
            wo0186,  wo0187,  wo0188,  wo0189,  wo0190,
            wo0191,  wo0192,  wo0193,  wo0194,  wo0195,
            wo0196,  wo0197,  wo0198,  wo0199,  wo0200,
            wo0201,  wo0202,  wo0203,  wo0204,  wo0205,
            wo0206,  wo0207,  wo0208,  wo0209,  wo0210,
            wo0211,  wo0212,  wo0213,  wo0214,  wo0215,
            wo0216,  wo0217,  wo0218,  wo0219,  wo0220,
            wo0221,  wo0222,  wo0223,  wo0224,  wo0225,
            wo0226,  wo0227,  wo0228,  wo0229,  wo0230,
            wo0231,  wo0232,  wo0233,  wo0234,  wo0235,
            wo0236,  wo0237,  wo0238,  wo0239,  wo0240,
            wo0241,  wo0242,  wo0243,  wo0244,  wo0245,
            wo0246,  wo0247,  wo0248,  wo0249,  wo0250,
            wo0251,  wo0252,  wo0253,  wo0254,  wo0255,
            wo0256,  wo0257,  wo0258,  wo0259,  wo0260,
            wo0261,  wo0262,  wo0263,  wo0264,  wo0265,
            wo0266,  wo0267,  wo0268,  wo0269,  wo0270,
            wo0271,  wo0272,  wo0273,  wo0274,  wo0275,
            wo0276,  wo0277,  wo0278,  wo0279,  wo0280,
            wo0281,  wo0282,  wo0283,  wo0284,  wo0285,
            wo0286,  wo0287,  wo0288,  wo0289,  wo0290,
            wo0291,  wo0292,  wo0293,  wo0294,  wo0295,
            wo0296,  wo0297,  wo0298,  wo0299,  wo0300,
            wo0301,  wo0302,  wo0303,  wo0304,  wo0305,
            wo0306,  wo0307,  wo0308,  wo0309,  wo0310,
            wo0311,  wo0312,  wo0313,  wo0314,  wo0315,
            wo0316,  wo0317,  wo0318,  wo0319,  wo0320,
            wo0321,  wo0322,  wo0323,  wo0324,  wo0325,
            wo0326,  wo0327,  wo0328,  wo0329,  wo0330,
            wo0331,  wo0332,  wo0333,  wo0334,  wo0335,
            wo0336,  wo0337,  wo0338,  wo0339,  wo0340,
            wo0341,  wo0342,  wo0343,  wo0344,  wo0345,
            wo0346,  wo0347,  wo0348,  wo0349,  wo0350,
            wo0351,  wo0352,  wo0353,  wo0354,  wo0355,
            wo0356,  wo0357,  wo0358,  wo0359,  wo0360,
            wo0361,  wo0362,  wo0363,  wo0364,  wo0365,
            wo0366,  wo0367,  wo0368,  wo0369,  wo0370,
            wo0371,  wo0372,  wo0373,  wo0374,  wo0375,
            wo0376,  wo0377,  wo0378,  wo0379,  wo0380,
            wo0381,  wo0382,  wo0383,  wo0384,  wo0385,
            wo0386,  wo0387,  wo0388,  wo0389,  wo0390,
            wo0391,  wo0392,  wo0393,  wo0394,  wo0395,
            wo0396,  wo0397,  wo0398,  wo0399,  wo0400,
            wo0401,  wo0402,  wo0403,  wo0404,  wo0405,
            wo0406,  wo0407,  wo0408,  wo0409,  wo0410,
            wo0411,  wo0412,  wo0413,  wo0414,  wo0415,
            wo0416,  wo0417,  wo0418,  wo0419,  wo0420,
            wo0421,  wo0422,  wo0423,  wo0424,  wo0425,
            wo0426,  wo0427,  wo0428,  wo0429,  wo0430,
            wo0431,  wo0432,  wo0433,  wo0434,  wo0435,
            wo0436,  wo0437,  wo0438,  wo0439,  wo0440,
            wo0441,  wo0442,  wo0443,  wo0444,  wo0445,
            wo0446,  wo0447,  wo0448,  wo0449,  wo0450,
            wo0451,  wo0452,  wo0453,  wo0454,  wo0455,
            wo0456,  wo0457,  wo0458,  wo0459,  wo0460,
            wo0461,  wo0462,  wo0463,  wo0464,  wo0465,
            wo0466,  wo0467,  wo0468,  wo0469,  wo0470,
            wo0471,  wo0472,  wo0473,  wo0474,  wo0475,
            wo0476,  wo0477,  wo0478,  wo0479,  wo0480,
            wo0481,  wo0482,  wo0483,  wo0484,  wo0485,
            wo0486,  wo0487,  wo0488,  wo0489,  wo0490,
            wo0491,  wo0492,  wo0493,  wo0494,  wo0495,
            wo0496,  wo0497,  wo0498,  wo0499,  wo0500,
            Msn1, FnGrp1,   Msn2,   Msn3,   Msn4,
            Msn5
      INDAT(1)=
                 0  1  2  3  4  5  6
                    7  8  9  10  11  12
                    13  14  15  16  17  18
                    19  20  21  22  23  24
                 0  25  26  27  28  29  30
                    31  32  33  34  35  36
                    37  38  39  40  41  42
                    43  44  45  46  47  48
                 0  49  50  51  52  53  54
                    55  56  57  58  59  60
                    61  62  63  64  65  66
                    67  68  69  70  71  72
                 0  73  74  75  76  77  78
                    79  80  81  82  83  84
                    85  86  87  88  89  90
                    91  92  93  94  95  96
                 0  97  98  99  100  101  102
                    103  104  105  106  107  108
                    109  110  111  112  113  114
                    115  116  117  118  119  120
                 0  121  122  123  124  125  126
                    127  128  129  130  131  132
                    133  134  135  136  137  138
                    139  140  141  142  143  144
                 0  145  146  147  148  149  150
                    151  152  153  154  155  156
                    157  158  159  160  161  162
                    163  164  165  166  167  168
                 0  169  170  171  172  173  174
                    175  176  177  178  179  180
                    181  182  183  184  185  186
                    187  188  189  190  191  192
                 0  193  194  195  196  197  198
                    199  200  201  202  203  204
                    205  206  207  208  209  210
                    211  212  213  214  215  216
                 0  217  218  219  220  221  222
                    223  224  225  226  227  228
                    229  230  231  232  233  234
                    235  236  237  238  239  240
                 0  241  242  243  244  245  246
                    247  248  249  250  251  252
                    253  254  255  256  257  258
                    259  260  261  262  263  264
                 0  265  266  267  268  269  270
                    271  272  273  274  275  276
                    277  278  279  280  281  282
                    283  284  285  286  287  288
                 0  289  290  291  292  293  294
                    295  296  297  298  299  300
                    301  302  303  304  305  306
                    307  308  309  310  311  312
                 0  313  314  315  316  317  318
                    319  320  321  322  323  324
                    325  326  327  328  329  330
                    331  332  333  334  335  336
                 0  337  338  339  340  341  342
                    343  344  345  346  347  348
                    349  350  351  352  353  354
                    355  356  357  358  359  360
                 0  361  362  363  364  365  366
                    367  368  369  370  371  372
                    373  374  375  376  377  378
                    379  380  381  382  383  384
                 0  385  386  387  388  389  390
                    391  392  393  394  395  396
                    397  398  399  400  401  402
                    403  404  405  406  407  408
                 0  409  410  411  412  413  414
                    415  416  417  418  419  420
                    421  422  423  424  425  426
                    427  428  429  430  431  432
                 0  433  434  435  436  437  438
                    439  440  441  442  443  444
                    445  446  447  448  449  450
                    451  452  453  454  455  456
                 0  457  458  459  460  461  462
                    463  464  465  466  467  468
                    469  470  471  472  473  474
                    475  476  477  478  479  480
                 0  481  482  483  484  485  486
                    487  488  489  490  491  492
                    493  494  495  496  497  498
                    499  500  501  502  503  504
                 0  505  506  507  508  509  510
                    511  512  513  514  515  516
                    517  518  519  520  521  522
                    523  524  525  526  527  528
                 0  529  530  531  532  533  534
                    535  536  537  538  539  540
                    541  542  543  544  545  546
                    547  548  549  550  551  552
                 0  553  554  555  556  557  558
                    559  560  561  562  563  564
                    565  566  567  568  569  570
                    571  572  573  574  575  576
                 0  577  578  579  580  581  582
                    583  584  585  586  587  588
                    589  590  591  592  593  594
                    595  596  597  598  599  600
                 0  601  602  603  604  605  606
                    607  608  609  610  611  612
                    613  614  615  616  617  618
                    619  620  621  622  623  624
                 0  625  626  627  628  629  630
                    631  632  633  634  635  636
                    637  638  639  640  641  642
                    643  644  645  646  647  648
                 0  649  650  651  652  653  654
                    655  656  657  658  659  660
                    661  662  663  664  665  666
                    667  668  669  670  671  672
                 0  673  674  675  676  677  678
                    679  680  681  682  683  684
                    685  686  687  688  689  690
                    691  692  693  694  695  696
                 0  697  698  699  700  701  702
                    703  704  705  706  707  708
                    709  710  711  712  713  714
                    715  716  717  718  719  720
                 0  721  722  723  724  725  726
                    727  728  729  730  731  732
                    733  734  735  736  737  738
                    739  740  741  742  743  744
                 0  745  746  747  748  749  750
                    751  752  753  754  755  756
                    757  758  759  760  761  762
                    763  764  765  766  767  768
                 0  769  770  771  772  773  774
                    775  776  777  778  779  780
                    781  782  783  784  785  786
                    787  788  789  790  791  792
                 0  793  794  795  796  797  798
                    799  800  801  802  803  804
                    805  806  807  808  809  810
                    811  812  813  814  815  816
                 0  817  818  819  820  821  822
                    823  824  825  826  827  828
                    829  830  831  832  833  834
                    835  836  837  838  839  840
                 0  841  842  843  844  845  846
                    847  848  849  850  851  852
                    853  854  855  856  857  858
                    859  860  861  862  863  864
                 0  865  866  867  868  869  870
                    871  872  873  874  875  876
                    877  878  879  880  881  882
                    883  884  885  886  887  888
                 0  889  890  891  892  893  894
                    895  896  897  898  899  900
                    901  902  903  904  905  906
                    907  908  909  910  911  912
                 0  913  914  915  916  917  918
                    919  920  921  922  923  924
                    925  926  927  928  929  930
                    931  932  933  934  935  936
                 0  937  938  939  940  941  942
                    943  944  945  946  947  948
                    949  950  951  952  953  954
                    955  956  957  958  959  960
                 0  961  962  963  964  965  966
                    967  968  969  970  971  972
                    973  974  975  976  977  978
                    979  980  981  982  983  984
                 0  985  986  987  988  989  990
                    991  992  993  994  995  996
                    997  998  999  1000  1001  1002
                    1003  1004  1005  1006  1007  1008
                 0  1009  1010  1011  1012  1013  1014
                    1015  1016  1017  1018  1019  1020
                    1021  1022  1023  1024  1025  1026
                    1027  1028  1029  1030  1031  1032
                 0  1033  1034  1035  1036  1037  1038
                    1039  1040  1041  1042  1043  1044
                    1045  1046  1047  1048  1049  1050
                    1051  1052  1053  1054  1055  1056
                 0  1057  1058  1059  1060  1061  1062
                    1063  1064  1065  1066  1067  1068
                    1069  1070  1071  1072  1073  1074
                    1075  1076  1077  1078  1079  1080
                 0  1081  1082  1083  1084  1085  1086
                    1087  1088  1089  1090  1091  1092
                    1093  1094  1095  1096  1097  1098
                    1099  1100  1101  1102  1103  1104
                 0  1105  1106  1107  1108  1109  1110
                    1111  1112  1113  1114  1115  1116
                    1117  1118  1119  1120  1121  1122
                    1123  1124  1125  1126  1127  1128
                 0  1129  1130  1131  1132  1133  1134
                    1135  1136  1137  1138  1139  1140
                    1141  1142  1143  1144  1145  1146
                    1147  1148  1149  1150  1151  1152
                 0  1153  1154  1155  1156  1157  1158
                    1159  1160  1161  1162  1163  1164
                    1165  1166  1167  1168  1169  1170
                    1171  1172  1173  1174  1175  1176
                 0  1177  1178  1179  1180  1181  1182
                    1183  1184  1185  1186  1187  1188
                    1189  1190  1191  1192  1193  1194
                    1195  1196  1197  1198  1199  1200
                 0  1201  1202  1203  1204  1205  1206
                    1207  1208  1209  1210  1211  1212
                    1213  1214  1215  1216  1217  1218
                    1219  1220  1221  1222  1223  1224
                 0  1225  1226  1227  1228  1229  1230
                    1231  1232  1233  1234  1235  1236
                    1237  1238  1239  1240  1241  1242
                    1243  1244  1245  1246  1247  1248
                 0  1249  1250  1251  1252  1253  1254
                    1255  1256  1257  1258  1259  1260
                    1261  1262  1263  1264  1265  1266
                    1267  1268  1269  1270  1271  1272
                 0  1273  1274  1275  1276  1277  1278
                    1279  1280  1281  1282  1283  1284
                    1285  1286  1287  1288  1289  1290
                    1291  1292  1293  1294  1295  1296
                 0  1297  1298  1299  1300  1301  1302
                    1303  1304  1305  1306  1307  1308
                    1309  1310  1311  1312  1313  1314
                    1315  1316  1317  1318  1319  1320
                 0  1321  1322  1323  1324  1325  1326
                    1327  1328  1329  1330  1331  1332
                    1333  1334  1335  1336  1337  1338
                    1339  1340  1341  1342  1343  1344
                 0  1345  1346  1347  1348  1349  1350
                    1351  1352  1353  1354  1355  1356
                    1357  1358  1359  1360  1361  1362
                    1363  1364  1365  1366  1367  1368
                 0  1369  1370  1371  1372  1373  1374
                    1375  1376  1377  1378  1379  1380
                    1381  1382  1383  1384  1385  1386
                    1387  1388  1389  1390  1391  1392
                 0  1393  1394  1395  1396  1397  1398
                    1399  1400  1401  1402  1403  1404
                    1405  1406  1407  1408  1409  1410
                    1411  1412  1413  1414  1415  1416
                 0  1417  1418  1419  1420  1421  1422
                    1423  1424  1425  1426  1427  1428
                    1429  1430  1431  1432  1433  1434
                    1435  1436  1437  1438  1439  1440
                 0  1441  1442  1443  1444  1445  1446
                    1447  1448  1449  1450  1451  1452
                    1453  1454  1455  1456  1457  1458
                    1459  1460  1461  1462  1463  1464
                 0  1465  1466  1467  1468  1469  1470
                    1471  1472  1473  1474  1475  1476
                    1477  1478  1479  1480  1481  1482
                    1483  1484  1485  1486  1487  1488
                 0  1489  1490  1491  1492  1493  1494
                    1495  1496  1497  1498  1499  1500
                    1501  1502  1503  1504  1505  1506
                    1507  1508  1509  1510  1511  1512
                 0  1513  1514  1515  1516  1517  1518
                    1519  1520  1521  1522  1523  1524
                    1525  1526  1527  1528  1529  1530
                    1531  1532  1533  1534  1535  1536
                 0  1537  1538  1539  1540  1541  1542
                    1543  1544  1545  1546  1547  1548
                    1549  1550  1551  1552  1553  1554
                    1555  1556  1557  1558  1559  1560
                 0  1561  1562  1563  1564  1565  1566
                    1567  1568  1569  1570  1571  1572
                    1573  1574  1575  1576  1577  1578
                    1579  1580  1581  1582  1583  1584
                 0  1585  1586  1587  1588  1589  1590
                    1591  1592  1593  1594  1595  1596
                    1597  1598  1599  1600  1601  1602
                    1603  1604  1605  1606  1607  1608
                 0  1609  1610  1611  1612  1613  1614
                    1615  1616  1617  1618  1619  1620
                    1621  1622  1623  1624  1625  1626
                    1627  1628  1629  1630  1631  1632
                 0  1633  1634  1635  1636  1637  1638
                    1639  1640  1641  1642  1643  1644
                    1645  1646  1647  1648  1649  1650
                    1651  1652  1653  1654  1655  1656
                 0  1657  1658  1659  1660  1661  1662
                    1663  1664  1665  1666  1667  1668
                    1669  1670  1671  1672  1673  1674
                    1675  1676  1677  1678  1679  1680
                 0  1681  1682  1683  1684  1685  1686
                    1687  1688  1689  1690  1691  1692
                    1693  1694  1695  1696  1697  1698
                    1699  1700  1701  1702  1703  1704
                 0  1705  1706  1707  1708  1709  1710
                    1711  1712  1713  1714  1715  1716
                    1717  1718  1719  1720  1721  1722
                    1723  1724  1725  1726  1727  1728
                 0  1729  1730  1731  1732  1733  1734
                    1735  1736  1737  1738  1739  1740
                    1741  1742  1743  1744  1745  1746
                    1747  1748  1749  1750  1751  1752
                 0  1753  1754  1755  1756  1757  1758
                    1759  1760  1761  1762  1763  1764
                    1765  1766  1767  1768  1769  1770
                    1771  1772  1773  1774  1775  1776
                 0  1777  1778  1779  1780  1781  1782
                    1783  1784  1785  1786  1787  1788
                    1789  1790  1791  1792  1793  1794
                    1795  1796  1797  1798  1799  1800
                 0  1801  1802  1803  1804  1805  1806
                    1807  1808  1809  1810  1811  1812
                    1813  1814  1815  1816  1817  1818
                    1819  1820  1821  1822  1823  1824
                 0  1825  1826  1827  1828  1829  1830
                    1831  1832  1833  1834  1835  1836
                    1837  1838  1839  1840  1841  1842
                    1843  1844  1845  1846  1847  1848
                 0  1849  1850  1851  1852  1853  1854
                    1855  1856  1857  1858  1859  1860
                    1861  1862  1863  1864  1865  1866
                    1867  1868  1869  1870  1871  1872
                 0  1873  1874  1875  1876  1877  1878
                    1879  1880  1881  1882  1883  1884
                    1885  1886  1887  1888  1889  1890
                    1891  1892  1893  1894  1895  1896
                 0  1897  1898  1899  1900  1901  1902
                    1903  1904  1905  1906  1907  1908
                    1909  1910  1911  1912  1913  1914
                    1915  1916  1917  1918  1919  1920
                 0  1921  1922  1923  1924  1925  1926
                    1927  1928  1929  1930  1931  1932
                    1933  1934  1935  1936  1937  1938
                    1939  1940  1941  1942  1943  1944
                 0  1945  1946  1947  1948  1949  1950
                    1951  1952  1953  1954  1955  1956
                    1957  1958  1959  1960  1961  1962
                    1963  1964  1965  1966  1967  1968
                 0  1969  1970  1971  1972  1973  1974
                    1975  1976  1977  1978  1979  1980
                    1981  1982  1983  1984  1985  1986
                    1987  1988  1989  1990  1991  1992
                 0  1993  1994  1995  1996  1997  1998
                    1999  2000  2001  2002  2003  2004
                    2005  2006  2007  2008  2009  2010
                    2011  2012  2013  2014  2015  2016
                 0  2017  2018  2019  2020  2021  2022
                    2023  2024  2025  2026  2027  2028
                    2029  2030  2031  2032  2033  2034
                    2035  2036  2037  2038  2039  2040
                 0  2041  2042  2043  2044  2045  2046
                    2047  2048  2049  2050  2051  2052
                    2053  2054  2055  2056  2057  2058
                    2059  2060  2061  2062  2063  2064
                 0  2065  2066  2067  2068  2069  2070
                    2071  2072  2073  2074  2075  2076
                    2077  2078  2079  2080  2081  2082
                    2083  2084  2085  2086  2087  2088
                 0  2089  2090  2091  2092  2093  2094
                    2095  2096  2097  2098  2099  2100
                    2101  2102  2103  2104  2105  2106
                    2107  2108  2109  2110  2111  2112
                 0  2113  2114  2115  2116  2117  2118
                    2119  2120  2121  2122  2123  2124
                    2125  2126  2127  2128  2129  2130
                    2131  2132  2133  2134  2135  2136
                 0  2137  2138  2139  2140  2141  2142
                    2143  2144  2145  2146  2147  2148
                    2149  2150  2151  2152  2153  2154
                    2155  2156  2157  2158  2159  2160
                 0  2161  2162  2163  2164  2165  2166
                    2167  2168  2169  2170  2171  2172
                    2173  2174  2175  2176  2177  2178
                    2179  2180  2181  2182  2183  2184
                 0  2185  2186  2187  2188  2189  2190
                    2191  2192  2193  2194  2195  2196
                    2197  2198  2199  2200  2201  2202
                    2203  2204  2205  2206  2207  2208
                 0  2209  2210  2211  2212  2213  2214
                    2215  2216  2217  2218  2219  2220
                    2221  2222  2223  2224  2225  2226
                    2227  2228  2229  2230  2231  2232
                 0  2233  2234  2235  2236  2237  2238
                    2239  2240  2241  2242  2243  2244
                    2245  2246  2247  2248  2249  2250
                    2251  2252  2253  2254  2255  2256
                 0  2257  2258  2259  2260  2261  2262
                    2263  2264  2265  2266  2267  2268
                    2269  2270  2271  2272  2273  2274
                    2275  2276  2277  2278  2279  2280
                 0  2281  2282  2283  2284  2285  2286
                    2287  2288  2289  2290  2291  2292
                    2293  2294  2295  2296  2297  2298
                    2299  2300  2301  2302  2303  2304
                 0  2305  2306  2307  2308  2309  2310
                    2311  2312  2313  2314  2315  2316
                    2317  2318  2319  2320  2321  2322
                    2323  2324  2325  2326  2327  2328
                 0  2329  2330  2331  2332  2333  2334
                    2335  2336  2337  2338  2339  2340
                    2341  2342  2343  2344  2345  2346
                    2347  2348  2349  2350  2351  2352
                 0  2353  2354  2355  2356  2357  2358
                    2359  2360  2361  2362  2363  2364
                    2365  2366  2367  2368  2369  2370
                    2371  2372  2373  2374  2375  2376
                 0  2377  2378  2379  2380  2381  2382
                    2383  2384  2385  2386  2387  2388
                    2389  2390  2391  2392  2393  2394
                    2395  2396  2397  2398  2399  2400
                 0  2401  2402  2403  2404  2405  2406
                    2407  2408  2409  2410  2411  2412
                    2413  2414  2415  2416  2417  2418
                    2419  2420  2421  2422  2423  2424
                 0  2425  2426  2427  2428  2429  2430
                    2431  2432  2433  2434  2435  2436
                    2437  2438  2439  2440  2441  2442
                    2443  2444  2445  2446  2447  2448
                 0  2449  2450  2451  2452  2453  2454
                    2455  2456  2457  2458  2459  2460
                    2461  2462  2463  2464  2465  2466
                    2467  2468  2469  2470  2471  2472
                 0  2473  2474  2475  2476  2477  2478
                    2479  2480  2481  2482  2483  2484
                    2485  2486  2487  2488  2489  2490
                    2491  2492  2493  2494  2495  2496
                 0  2497  2498  2499  2500  2501  2502
                    2503  2504  2505  2506  2507  2508
                    2509  2510  2511  2512  2513  2514
                    2515  2516  2517  2518  2519  2520
                 0  2521  2522  2523  2524  2525  2526
                    2527  2528  2529  2530  2531  2532
                    2533  2534  2535  2536  2537  2538
                    2539  2540  2541  2542  2543  2544
                 0  2545  2546  2547  2548  2549  2550
                    2551  2552  2553  2554  2555  2556
                    2557  2558  2559  2560  2561  2562
                    2563  2564  2565  2566  2567  2568
                 0  2569  2570  2571  2572  2573  2574
                    2575  2576  2577  2578  2579  2580
                    2581  2582  2583  2584  2585  2586
                    2587  2588  2589  2590  2591  2592
                 0  2593  2594  2595  2596  2597  2598
                    2599  2600  2601  2602  2603  2604
                    2605  2606  2607  2608  2609  2610
                    2611  2612  2613  2614  2615  2616
                 0  2617  2618  2619  2620  2621  2622
                    2623  2624  2625  2626  2627  2628
                    2629  2630  2631  2632  2633  2634
                    2635  2636  2637  2638  2639  2640
                 0  2641  2642  2643  2644  2645  2646
                    2647  2648  2649  2650  2651  2652
                    2653  2654  2655  2656  2657  2658
                    2659  2660  2661  2662  2663  2664
                 0  2665  2666  2667  2668  2669  2670
                    2671  2672  2673  2674  2675  2676
                    2677  2678  2679  2680  2681  2682
                    2683  2684  2685  2686  2687  2688