 $mp2 code=omprimp2 $end
 $auxbas cabnam=ccd $end
 $INTGRL INTOMP=1 $END
 $CONTRL SCFTYP=RHF RUNTYP=energy nprint=-5 
         mplevl=2 ISPHER=1
         LOCAL=RUEDNBRG MAXIT=50 $END 
 $SYSTEM MWORDS=500 $END
 $GDDI NGROUP=1 $END
 $SCF DIRSCF=.TRUE. NPUNCH=0 $END
 $FMOPRP
    NGRFMO(1)=1, 1, 0, 0, 0,   0, 0, 0, 0, 0
    NPRINT=0
 $END
 $FMO
      nbody=2
      iefmo=1
      modefm(1)=0,0,0,1,1
!     RAFO(1)=1, 1.0, 1
      RAFO(1)=.1, 1, 1
      MAXCAO=9
      MAXBND=198
      NLAYER=1
      NFRAG=50
      ICHARG(1)=   
                   0,  0,  0,  0,  0,  0,  0,  0,  0,  0,
                   0,  0,  0,  0,  0,  0,  0,  0,  0,  0,
                   0,  0,  0,  0,  0,  0,  0,  0,  0,  0,
                   0,  0,  0,  0,  0,  0,  0,  0,  0,  0,
                   0,  0,  0,  0,  0,  0,  0,  0,  0,  0
      FRGNAM(1)= 
                 Msn1a,  Msn1b,  FnGrp1, Msn2a,  Msn2b, 
                 Msn3a,  Msn3b,  Msn4a,  Msn4b,  Msn5a, 
                 Msn5b,  Msn6a,  Msn6b,  Msn7a,  Msn7b, 
                 Msn8a,  Msn8b,  Msn9a,  Msn9b,  Msn10a, 
                 Msn10b, Msn11a, Msn11b, Msn12a, Msn12b, 
                 FnGrp2, Msn13a, Msn13b, Msn14a, Msn14b, 
                 Msn15a, Msn15b, FnGrp3, Msn16a, Msn16b,
                 FnGrp4, Msn17a, Msn17b, Msn18a, Msn18b,
                 Msn19a, Msn19b, Msn20a, Msn20b, Msn21a,
                 Msn21b, Msn22a, Msn22b, Msn23a, Msn23b
      INDAT(1)=  0
               174   175   202   203   204   229
               231   233   256   258   259   275
               753   763   776   784  1051  1052
              1055  1056  1060  1065  1066  1087
              1088  1091  1092  1151  1362  1363
              1365  1366  1367  1368  1369  1429
              1430  1431  1432     0
               277   279   298   300   302   326
               329   332   365   368   793   801
               816  1070  1071  1075  1076  1080
              1084  1095  1096  1099  1229  1370
              1371  1372  1373  1374  1375  1433
              1434  1435     0
              1061  1405  1410  1411  1412  1413
              1406  1407  1408  1409  1420  1421
                 0
               205   234   260   280   764   785
              1053  1054  1057  1058  1059  1062
              1063  1064  1069  1089  1090  1093
              1164  1174  1185  1192  1364     0
               304   334   370   409   803   831
              1067  1068  1072  1073  1074  1077
              1078  1079  1081  1082  1083  1085
              1086  1094  1097  1098  1100  1203
              1216  1232  1245  1376     0
               274   296   297   324   328   331
               360   362   364   405   407   448
               450   451   495   541   542   584
               791   800   813   815   829   848
               866   906  1191  1201  1213  1228
              1257  1259  1271  1282  1293     0
               228   230   232   254   255   257
               276   278   299   301   303   333
               367   369   408   774   775   783
               792   802   830  1172  1173  1184
              1202  1215  1231  1244     0
               294   295   323   325   327   330
               357   359   361   363   366   401
               403   404   406   446   447   449
               799   812   814   827   828   846
               847   865  1199  1200  1214  1226
              1230  1258     0
               442   444   490   492   493   494
               534   536   538   539   540   580
               582   583   619   864   885   886
               904   905   923  1255  1279  1281
              1292  1303  1328  1377     0
               321   322   354   355   356   358
               397   399   400   402   437   439
               441   443   445   489   811   825
               826   844   845   862   863  1212
              1225  1227  1253  1256     0
               486   488   491   529   531   533
               535   537   576   578   579   581
               614   616   617   618   645   883
               884   902   903   921   922   936
              1277  1280  1300  1302  1312     0
               352   353   394   395   396   398
               433   435   436   438   440   482
               485   487   530   532   824   842
               843   860   861   882  1223  1224
              1243  1251  1254  1278     0
               484   524   526   528   572   574
               575   577   608   610   612   613
               615   641   643   644   662   663
               881   900   901   919   920   934
               935   945  1275  1298  1301  1311
              1318  1319     0
               519   568   570   603   605   607
               637   639   640   642   657   659
               660   661   672   898   917   932
               933   943   944   950  1273  1296
              1315  1317  1324     0
               392   393   430   431   432   434
               478   480   481   483   521   523
               525   527   571   573   609   611
               841   858   859   879   880   899
               918  1242  1250  1252  1276  1299
                 0
               634   636   638   656   658   669
               670   671   675   676   931   942
               949   952   986   987   988   989
               990   991   992   993   997   998
               999  1000  1316  1326  1327  1342
              1343  1344  1345  1346     0
               477   479   520   522   565   567
               569   604   606   878   897   916
               979   980   981   982   983   984
               985   994   995   996  1270  1274
              1297  1338  1339  1340  1341     0
               428   429   472   475   476   511
               513   515   516   517   518   558
               561   564   566   597   599   602
               857   875   877   894   896   913
               915   953   954  1249  1268  1289
                 0
               595   600   601   628   630   633
               635   649   650   652   653   654
               655   666   667   668   673   674
               928   930   939   941   947   948
               951   955   956  1309  1322  1323
              1325     0
               390   391   422   424   426   427
               465   468   470   473   474   507
               509   514   553   556   840   854
               856   873   876   892  1240  1241
              1248  1265  1269  1287     0
               512   559   562   563   591   593
               596   598   624   626   629   631
               632   647   648   651   664   665
               895   911   914   926   929   938
               940   946  1291  1307  1310  1314
              1320  1321     0
               350   351   384   386   388   389
               418   420   423   425   460   463
               466   469   503   505   549   823
               837   839   852   855   871   890
              1222  1238  1239  1263  1286     0
               471   508   510   551   554   557
               560   588   589   592   594   622
               623   625   627   646   874   893
               909   912   925   927   937  1267
              1290  1306  1308  1313     0
               319   320   342   345   348   349
               376   379   382   385   414   416
               421   456   458   810   819   822
               835   838   850  1210  1211  1220
              1235  1262     0
               419   461   464   467   499   501
               504   506   545   547   550   552
               555   586   587   590   620   621
               853   869   872   888   891   908
               910   924  1266  1284  1288  1295
              1304  1305     0
               387  1396  1401  1402  1403  1404
              1397  1398  1399  1400  1419  1418
                 0
               288   291   305   307   309   312
               315   318   335   337   339   343
               346   372   374   377   380   383
               412   796   804   806   809   817
               820   833   836  1196  1204  1206
              1209  1217  1234  1237     0
               371   373   410   411   415   417
               452   453   454   455   457   459
               462   496   497   498   500   502
               543   544   546   548   585   832
               849   851   867   868   870   887
               889   907  1233  1246  1260  1261
              1264  1272  1283  1285  1294     0
               261   281   283   292   306   310
               313   316   336   338   340   347
               375   378   381   413   786   794
               797   805   807   818   821   834
              1022  1029  1031  1036  1186  1193
              1197  1205  1207  1218  1221  1236
              1247     0
               188   206   212   216   220   235
               238   241   248   265   268   271
               285   757   765   768   777   780
               788  1009  1012  1019  1156  1165
              1168  1169  1175  1179  1188     0
               289   308   344  1021  1023  1361
              1024  1025  1026  1027  1028  1030
              1032  1033  1034  1035  1045  1046
              1047  1048  1049  1050  1356  1357
              1358  1359  1360     0
               184   209   245   263  1001  1002
              1003  1004  1005  1006  1007  1008
              1010  1011  1013  1014  1015  1016
              1017  1018  1037  1038  1039  1040
              1041  1042  1043  1044  1347  1348
              1349  1350  1351  1352  1353  1354
              1355     0
              1020  1387  1392  1393  1394  1395
              1388  1389  1390  1391  1417  1416
                 0
               207   236   239   249   262   266
               269   272   282   284   286   293
               311   314   317   341   766   778
               781   787   789   795   798   808
              1166  1176  1180  1187  1189  1194
              1198  1208  1219     0
               126   149   153   156   159   176
               178   181   189   213   217  1157
               242   733   742   744   754   758
               769  1136  1145  1147  1148  1152
                 0
               221  1378  1383  1384  1385  1386
              1379  1380  1381  1382  1415  1414
                 0
               150   177   179   208   210   214
               218   237   240   243   246   264
               267   270   287   290   743   755
               767   770   779   790  1146  1153
              1167  1177  1195     0
                92    94    96   118   119   121
               123   151   154   157   182   185
               718   719   731   745  1130  1131
              1133     0
               120   152   155   180   183   186
               211   215   222   244   247   250
               251   273   732   746   756   759
               771   772   782  1134  1154  1178
              1181  1190     0
                45    65    66    67    69    93
                95    98   122   124   127   129
               160   190   192   697   707   708
               720   721   734   747  1118  1121
              1123  1137  1158     0
               125   128   130   158   161   162
               164   187   191   193   194   196
               219   223   224   225   252   253
               722   735   736   748   749   760
               761   773  1135  1155  1160  1170
              1182  1183     0
                26    27    46    47    49    68
                70    71    73    75    97    99
               100   102   132   134   689   698
               699   709   710   723  1111  1112
              1119  1122  1125  1139     0
               103   131   133   135   163   165
               166   168   195   197   198   199
               226   227   724   737   738   750
               751   762  1138  1159  1161  1171
                 0
                14    28    29    30    32    48
                50    51    53    72    74    76
                78    80   101   104   106   137
               139   683   690   691   700   701
               711   712   725  1108  1113  1115
              1124  1127  1141     0
                77    79   105   107   110   136
               138   140   141   143   167   169
               170   171   200   201   713   726
               727   739   740   752  1126  1140
              1143  1149  1162  1163     0
                 5     6    15    16    18    31
                33    34    36    38    52    54
                55    57    81    83    85   108
               679   684   685   692   693   702
               703   714  1104  1105  1109  1114
              1117  1129     0
                58    60    82    84   109   111
               113   142   704   715   728   965
               966   967   968   969   970   971
               976   977   978  1128  1142  1334
              1335  1336  1337     0
                 1     2     7     8    17    19
                21    35    37    56   677   680
               686   694   957   958   959   960
               961   962   963   964   972   973
               974   975  1101  1106  1116  1329
              1330  1331  1332  1333     0
                42    62    63    64    86    87
                88    89    90    91   112   114
               115   116   117   144   145   146
               147   148   172   173   696   705
               706   716   717   729   730   741
              1120  1132  1144  1150  1425  1426
              1427  1428     0
                 3     4     9    10    11    12
                13    20    22    23    24    25
                39    40    41    43    44    59
                61   678   681   682   687   688
               695  1102  1103  1107  1110  1422
              1423  1424     0
 $END
 $FMOBND
      -677       9
      -683      15
      -684      17
      -685      20
      -686      39
      -697      46
      -698      48
      -699      51
      -700      52
      -701      55
      -702      56
      -703      59
      -704      86
      -708      96
      -718      93
      -720      97
      -721     100
      -722     101
      -723     104
      -724     105
      -725     108
      -726     109
      -727     112
      -728     144
      -733     123
      -734     157
      -742     151
      -743     152
      -744     184
      -746     158
      -747     162
      -748     163
      -749     166
      -750     167
      -751     170
      -752     172
      -754     209
      -758     185
      -759     218
      -764     232
      -766     210
      -767     211
      -768     288
      -769     245
      -771     219
      -772     224
      -773     226
      -774    1062
      -777     307
      -778     263
      -781     246
      -782     270
      -783     325
      -785     278
      -787     264
      -788     343
      -789     289
      -791    1072
      -794     373
      -795     308
      -798     290
      -799     322
      -800     403
      -802     330
      -803     331
      -806     342
      -807     415
      -808     344
      -809     348
      -810     350
      -813    1081
      -818     454
      -824     393
      -825     395
      -826     398
      -827     399
      -828     402
      -829     492
      -830     406
      -831     407
      -833     414
      -834     500
      -835     418
      -836     419
      -837     422
      -838     423
      -839     426
      -840     428
      -858     476
      -859     479
      -860     480
      -861     483
      -862     484
      -863     487
      -864     488
      -865     491
      -866     494
      -868     499
      -869     503
      -870     504
      -871     507
      -872     508
      -873     511
      -874     512
      -876     516
      -897     518
      -898     566
      -899     569
      -900     570
      -901     573
      -902     574
      -903     577
      -904     578
      -905     581
      -906     583
      -907     586
      -908     588
      -909     591
      -910     592
      -911     595
      -912     596
      -914     600
      -931     602
      -932     635
      -933     638
      -934     639
      -935     642
      -936     644
      -937     647
      -938     649
      -940     653
      -949     655
      -950     671
      -973      11
      -975      42
      -977      89
      -994     515
      -996     599
      -998     652
      -1000     674
      -1039    1009
      -1040    1012
      -1043    1019
      -1044    1022
      -1047    1029
      -1048    1031
      -1050    1036
      -1087    1054
      -1088    1057
      -1091    1064
      -1092    1067
      -1095    1074
      -1096    1077
      -1099    1083
      -277     784
      -1068    1093
      -299     800
      -444     846
      -493     865
      -884     489
      -486     862
      -881     482
      -530     901
      -609     933
      -521     898
      -604     931
      -997     985
      -601     915
      -597     928
      -556     911
      -514     895
      -469     874
      -890     551
      -853     421
      -458     869
      -417     836
      -412     849
      -285     794
      -242     778
      -182     755
      -190     759
      -732     122
      -132     736
      -99      722
      -137     738
      -103     711
      -714     110
       -79     702
      -694      58
      -966     975
       -43     696
      -705      61
      -1023    1044
      -1061    1092
      -387     838
      -1045    1020
      -221     758
 $END
 $DATA
 FMO   calculation : 50 Fragment MSN   single pore
 C1 
 O.1-1    8
      N31 6 
   
 C.1-1    6
      N31 6 
   
 Si.1-1  14
      N31 6 
   
 H.1-1    1
      N31 6 
   
 N.1-1    7
      N31 6 
   
 $END
 $FMOXYZ
O   8  -21.797860   -3.779870    7.102710
O   8  -22.348350   -2.163260    9.164300
O   8  -20.068040    2.863230    6.535200
O   8  -21.787320    4.616240    7.605440
O   8  -20.033250   -6.295980    7.820780
O   8  -18.694250   -5.312380    5.727180
O   8  -19.418310   -5.804630   10.742950
O   8  -20.376520   -3.858330    9.287120
O   8  -20.190090   -1.713460    7.643540
O   8  -19.006710    0.178870    6.233370
O   8  -19.543310    1.496590   11.051530
O   8  -20.107730    3.248340    9.169200
O   8  -19.162460    5.147990    7.599530
O   8  -18.608540  -10.260970    5.018000
O   8  -18.627420   -7.915720    6.275080
O   8  -17.357290   -6.171290    7.892370
O   8  -17.774330   -4.138080    9.515470
O   8  -16.917820   -3.440110    4.328740
O   8  -19.177290   -3.257300   11.606950
O   8  -17.821020   -2.173770    6.457670
O   8  -18.629480   -1.320020   13.353700
O   8  -17.988500   -0.544740    8.587710
O   8  -17.754600    2.009520    9.206960
O   8  -18.337630    3.827870   11.092720
O   8  -17.342150    5.358300   13.047740
O   8  -17.190130  -12.898470    4.801050
O   8  -16.347240  -12.660430    2.273250
O   8  -16.351160  -12.387810    7.590050
O   8  -17.014160   -9.836190    7.106720
O   8  -16.538240   -8.607920    4.774290
O   8  -16.884260   -6.751560   11.981260
O   8  -17.443550   -6.560850    3.341280
O   8  -15.653100   -5.643140    9.894200
O   8  -15.788060   -4.021690    7.826330
O   8  -16.410370   -5.852610   14.714570
O   8  -15.182610   -2.354570    6.023040
O   8  -17.410450   -3.719630   13.493920
O   8  -16.701530   -0.731920    4.505720
O   8  -16.866120   -2.043600   11.496960
O   8  -16.179580    0.233170   10.386450
O   8  -15.886500    0.796610    7.767930
O   8  -16.928990    0.988330   15.191220
O   8  -17.111250    2.701570   13.147900
O   8  -15.735660    4.116270   11.320920
O   8  -14.766530  -16.855720    2.334060
O   8  -15.521850  -14.719470    3.747420
O   8  -14.651360  -12.245700    4.258260
O   8  -14.634830  -10.745120    6.417780
O   8  -14.701940  -10.345490    1.805870
O   8  -15.239560  -10.455130    9.005300
O   8  -15.219110   -7.850880    2.608720
O   8  -15.413630   -8.199770   10.324840
O   8  -15.241900   -6.293710    4.794930
O   8  -14.236200   -6.396610   11.977100
O   8  -13.782960   -4.621220    6.192260
O   8  -14.773700   -4.248320   13.410730
O   8  -13.454940   -2.764580    8.062000
O   8  -15.938350   -3.416730   15.681220
O   8  -14.583500   -1.851850   10.250380
O   8  -15.155430   -1.653610   17.505710
O   8  -14.936560   -0.642060   12.625720
O   8  -14.779810    1.707180   13.821440
O   8  -16.005400    3.488650   15.395020
O   8  -16.237390    4.177280   17.925680
O   8  -12.924700  -17.995620    6.722580
O   8  -13.748360  -16.403340    4.736270
O   8  -13.083910  -14.820250    2.659700
O   8  -13.864370  -13.396440    8.958500
O   8  -13.808100  -13.006320    0.845250
O   8  -13.268130  -12.987540    6.423150
O   8  -12.431370  -10.975770    4.933030
O   8  -13.163180  -12.596240   11.709560
O   8  -12.913980   -9.006210    3.248520
O   8  -13.794350  -10.070190   11.165770
O   8  -13.385410   -8.283570    0.715670
O   8  -13.201510   -8.771270    8.906910
O   8  -13.859830   -6.885650   15.930200
O   8  -13.709480   -7.223210    6.773210
O   8  -12.586040   -5.707590   13.914360
O   8  -12.596620   -6.289470    4.506950
O   8  -12.761360   -4.203530   11.697310
O   8  -13.562990   -6.453770   18.809510
O   8  -11.982930   -2.226850   10.202930
O   8  -14.478820   -4.213960   17.754800
O   8  -13.020820   -0.237940    8.759950
O   8  -13.426160   -2.728050   15.819200
O   8  -13.388120   -0.301750   14.766650
O   8  -12.718570    0.783540   12.412610
O   8  -13.977400    2.256620   19.528450
O   8  -14.030110    2.951150   17.019650
O   8  -14.423250    5.433660   16.307580
O   8  -12.383750  -18.531300    1.637040
O   8  -11.987780  -18.337510    4.253510
O   8  -11.867990  -17.430950   -1.220420
O   8  -11.293540  -16.187040    5.657120
O   8  -12.455440  -15.203330    0.103730
O   8  -11.858790  -14.730230    7.798430
O   8  -11.232790  -13.316300    1.476080
O   8  -11.552240  -12.139360    8.304850
O   8  -11.192840  -10.931640    2.599690
O   8  -11.372990  -10.945590   10.628860
O   8  -10.596230   -9.166920    4.534870
O   8  -12.124240  -10.605610   13.160760
O   8  -11.452070   -8.614930    6.967680
O   8  -12.235120   -8.306620   14.419310
O   8  -11.893880   -6.514080    8.562590
O   8  -11.231000   -6.461800   16.077630
O   8  -10.814070   -4.541860    9.903580
O   8  -11.864260   -4.632150   17.871250
O   8  -10.323650   -3.122970   12.078500
O   8  -13.229480   -4.126010   20.106320
O   8  -11.634560   -2.092480   14.030080
O   8  -13.281110   -1.594590   20.896620
O   8  -11.483900   -1.104040   16.496930
O   8  -12.495620    0.974240   17.725520
O   8  -11.851780    3.432670   18.560370
O   8  -11.785140    3.713940   21.190780
O   8  -10.487040  -20.013840    2.860500
O   8  -10.156590  -17.376090    2.554520
O   8  -10.827400  -18.132490    8.978530
O   8   -9.998680  -16.221300    0.192840
O   8   -9.617120  -16.181580    7.687570
O   8  -10.779860  -15.071360   -1.997700
O   8   -9.914230  -14.011700    6.201040
O   8  -10.684770  -13.772640   12.715550
O   8   -9.712270  -13.510060   -3.866350
O   8  -10.050490  -12.969810    3.810150
O   8   -9.990490  -13.126920   10.185380
O   8   -8.983650  -11.984940    1.505280
O   8   -9.291900  -10.800630    9.010620
O   8   -9.331960  -12.533860   15.440320
O   8   -9.051530   -9.650210    6.632660
O   8  -10.270870  -10.073010   14.953790
O   8   -9.520750   -7.125980    5.807470
O   8  -10.309730   -8.815380   12.623590
O   8   -8.048750   -7.232300   19.815860
O   8  -10.460100   -7.031950   10.723970
O   8   -9.571290   -5.936420   18.072300
O   8   -9.276610   -6.098070    8.455020
O   8   -9.968840   -4.128610   16.110410
O   8   -9.049830   -2.407890   14.328550
O   8  -12.185890   -3.422350   22.463050
O   8   -9.930650   -0.541140   12.635460
O   8  -10.988620   -2.711000   20.157290
O   8  -10.639180   -0.405890   18.925800
O   8   -9.977790    1.044520   16.808220
O   8   -9.831780    2.400700   19.953160
O   8  -10.061020    5.078170   19.606140
O   8   -7.019820  -20.215400   -0.306140
O   8   -8.258450  -19.614810    4.875850
O   8   -8.373990  -18.200720    0.772260
O   8   -8.834070  -18.678580    7.298870
O   8   -8.016000  -17.291340   -2.128020
O   8   -8.085340  -15.782890    1.884810
O   8   -8.323580  -17.382290    9.619050
O   8   -8.139190  -14.628870   -2.029920
O   8   -8.319560  -14.932260    4.340370
O   8   -9.234460  -15.453510   11.188610
O   8   -9.816690  -12.678320   -1.306950
O   8   -7.930480  -12.525770    5.406170
O   8   -8.155180  -13.266510   12.101560
O   8   -7.102280  -11.170790    7.518260
O   8   -8.246910  -11.061650   13.555630
O   8   -7.545560   -8.817100    8.671290
O   8   -7.878850  -10.356100   16.097200
O   8   -8.209260   -8.354280   11.153790
O   8   -8.065280   -7.980570   17.271970
O   8   -8.978290   -6.533040   12.927180
O   8   -6.913290   -5.641560   17.987510
O   8   -7.908310   -4.756580   14.574760
O   8   -7.627350   -2.953670   16.515330
O   8   -8.778040   -2.281580   18.794840
O   8   -9.267050   -0.911810   21.104480
O   8   -9.190120   15.098840   -5.498450
O   8   -8.079500   16.885430   -3.926790
O   8   -6.743470  -19.683190    2.319620
O   8   -6.614470  -20.104810    6.956030
O   8   -5.753240  -18.011820    0.514990
O   8   -6.787150  -17.650950    5.925130
O   8   -5.737990  -17.321290   14.051200
O   8   -6.027670  -15.900210   -1.041700
O   8   -6.257370  -16.479180    3.631870
O   8   -6.997470  -16.691540   11.839190
O   8   -6.421070  -15.902670   -3.680560
O   8   -6.435660  -13.918620    2.848430
O   8   -7.104340  -15.010160    9.764900
O   8   -6.884550  -14.536740   15.241740
O   8   -4.874960  -13.986550   -8.538990
O   8   -5.953830  -13.123650    0.334680
O   8   -6.781990  -13.779570    7.462640
O   8   -6.107370  -12.626460   13.596230
O   8   -5.322810  -12.228410    5.826730
O   8   -6.615690  -11.207410   11.447600
O   8   -5.692990   -8.903850   10.613290
O   8   -5.771650   -9.411020   17.368460
O   8   -6.725920   -6.553960    9.848260
O   8   -6.572660   -8.257920   15.103280
O   8   -6.342940   -6.407260   13.293780
O   8   -7.617950   -4.505630   11.893600
O   8   -6.178370   -2.701830   18.686970
O   8   -7.218320   -0.492130   17.506410
O   8   -6.138670   12.543630   -2.521660
O   8   -7.049320   14.407900   -4.120200
O   8   -6.823190   16.144360   -6.150700
O   8   -4.467310   18.672330  -10.267100
O   8   -0.297930  -19.790390   -7.973660
O   8   -3.781700  -19.199120    2.234340
O   8   -5.407830  -18.482340    9.114790
O   8   -4.220190  -17.748480   -1.631360
O   8   -4.628940  -18.367920    4.571370
O   8   -4.844080  -18.243010   11.700140
O   8   -1.181870  -16.503880  -11.317650
O   8   -3.834770  -16.291540    0.530180
O   8   -4.718070  -15.990920    5.720540
O   8   -4.574450  -15.653790   12.357760
O   8   -2.695970  -14.919700   -9.766730
O   8   -3.962690  -14.087740    1.936450
O   8   -4.998320  -15.562530    8.273830
O   8   -4.306560  -14.262100   14.575420
O   8   -2.637010  -14.401410   -7.140550
C   6   -4.964340  -11.556240    2.481440
O   8   -5.182340  -13.209200    9.502610
O   8   -5.465940  -12.407140   16.161540
O   8   -4.135160  -11.042080   10.533060
O   8   -4.755410  -10.074690   12.876860
O   8   -4.187390   -7.866930   14.031410
O   8   -5.188750   -6.028000   15.677030
O   8   -1.113780   12.507040   -8.488410
O   8   -4.546530   13.519630   -4.400680
O   8   -2.088370   14.862590  -12.750570
O   8   -5.253290   15.042380   -2.306270
O   8   -2.686350   16.960050  -11.217170
O   8   -4.601230   16.946510   -0.649910
O   8   -1.863590   19.385880  -10.407320
O   8    1.058300  -18.966000   -5.833380
O   8   -2.547520  -20.030670    4.437030
O   8   -4.045540  -20.410700   10.361170
O   8   -0.225180  -17.213260   -7.329510
O   8   -2.279670  -17.477980    3.624810
O   8   -2.892510  -18.034080    9.887000
O   8   -0.136120  -15.335390   -9.168910
O   8   -1.744930  -15.530240    1.925890
O   8   -2.996090  -17.069430    7.438540
O   8   -2.365420  -15.945270   13.800810
O   8   -2.485170  -14.121800   -0.227240
O   8   -2.980620  -14.434300    6.953700
O   8   -2.791910  -13.654700   12.486580
O   8   -0.068080  -13.062210   -6.617490
O   8   -2.834900  -13.493900    4.515790
O   8   -2.577030  -13.051370    9.936490
O   8   -3.687520  -11.517290    7.999950
O   8   -3.686080  -10.166540   15.299160
O   8   -2.170920   -9.467460   13.146430
O   8    1.368860   11.987580   -7.561060
O   8    0.897310   14.229680   -8.919150
O   8   -2.711320   13.382270    0.994370
O   8   -0.552870   15.489860  -10.718000
O   8   -2.904650   14.892710   -1.160850
O   8   -3.399680   16.808700   -2.980910
O   8    0.136690   20.101980   -4.958340
O   8    1.632090  -20.016000   -3.229870
O   8   -0.058760  -19.281690    5.729850
O   8   -0.486890  -17.888340    1.708380
O   8   -0.947910  -18.622020    8.149760
O   8    1.878360  -15.567660   -7.479850
O   8    0.082170  -16.244110    3.682270
O   8   -1.226880  -16.135750    9.103230
O   8    1.462050  -14.638260   -5.079890
O   8   -0.734440  -14.746030    5.648880
O   8   -0.699930  -14.525450   11.100940
O   8    0.471840  -12.377280   -4.076690
O   8   -1.403930  -12.306200    6.473240
O   8   -0.940320  -11.904190   11.702220
O   8    1.601430   12.637310   -4.529420
O   8   -0.573460   13.860340   -0.488010
O   8    0.802440   16.882870   -8.851990
O   8   -1.658110   15.856230    0.929580
O   8    1.195770   18.372380   -6.652750
O   8   -1.569130   17.649060    2.852500
O   8    2.803880   19.979600   -5.171140
O   8    3.321180  -19.524270   -1.244580
O   8    1.307980  -20.021330    7.911460
O   8    3.750680  -18.438290   -3.667950
O   8    1.226130  -17.445830    7.164100
O   8    3.274860  -16.548660   -5.443270
O   8    1.800100  -15.451400    5.539760
O   8    1.098420  -16.416230   10.373270
O   8   -0.766330  -13.883850  -11.281940
O   8    0.824910  -13.675590    3.797670
O   8    0.600630  -14.291320    8.810450