 $mp2 code=omprimp2 $end
 $auxbas cabnam=ccd $end
 $INTGRL INTOMP=1 $END
 $CONTRL SCFTYP=RHF RUNTYP=energy nprint=-5 
         mplevl=2 ISPHER=1
         LOCAL=RUEDNBRG MAXIT=50 $END 
 $SYSTEM MWORDS=500 $END
 $GDDI NGROUP=1 $END
 $SCF DIRSCF=.TRUE. NPUNCH=0 $END
 $FMOPRP
    NGRFMO(1)=1, 1, 0, 0, 0,   0, 0, 0, 0, 0
    NPRINT=0
 $END
 $FMO
      nbody=2
      iefmo=1
      modefm(1)=0,0,0,1,1
!     RAFO(1)=1, 1.0, 1
      RAFO(1)=.1, 1, 1
      MAXCAO=9
      MAXBND=248
      NLAYER=1
      NFRAG=60
      ICHARG(1)=   
                   0,  0,  0,  0,  0,  0,  0,  0,  0,  0,
                   0,  0,  0,  0,  0,  0,  0,  0,  0,  0,
                   0,  0,  0,  0,  0,  0,  0,  0,  0,  0,
                   0,  0,  0,  0,  0,  0,  0,  0,  0,  0,
                   0,  0,  0,  0,  0,  0,  0,  0,  0,  0,
                   0,  0,  0,  0,  0,  0,  0,  0,  0,  0
      FRGNAM(1)= 
                 Msn1a,  Msn1b,  FnGrp1, Msn2a,  Msn2b, 
                 Msn3a,  Msn3b,  Msn4a,  Msn4b,  Msn5a, 
                 Msn5b,  Msn6a,  Msn6b,  Msn7a,  Msn7b, 
                 Msn8a,  Msn8b,  Msn9a,  Msn9b,  Msn10a, 
                 Msn10b, Msn11a, Msn11b, Msn12a, Msn12b, 
                 FnGrp2, Msn13a, Msn13b, Msn14a, Msn14b, 
                 Msn15a, Msn15b, FnGrp3, Msn16a, Msn16b,
                 FnGrp4, Msn17a, Msn17b, Msn18a, Msn18b,
                 Msn19a, Msn19b, Msn20a, Msn20b, Msn21a,
                 Msn21b, Msn22a, Msn22b, Msn23a, Msn23b,
                 Msn24a, Msn24b, Msn25a, Msn25b, Msn26a,
                 Msn26b, Msn27a, Msn27b, Msn28a, Msn28b
      INDAT(1)= 0
          283  286  328  331  334  372
          376  380  411  414  417  440
          980  996 1016 1027 1300 1301
         1304 1305 1309 1314 1315 1336 
         1337 1340 1341 1437 1679 1680 
         1682 1683 1684 1685 1686    0
          443  446  469  471  474  500
          503  506  540  543 1040 1049
         1065 1319 1320 1324 1325 1329
         1333 1344 1345 1348 1546 1687
         1688 1689 1690 1691 1692    0
         1310 1722 1727 1728 1729 1730
         1723 1724 1725 1726 1737 1738
            0
          337  383  420  448  999 1029
         1302 1303 1306 1307 1308 1311
         1312 1313 1318 1338 1339 1342
         1456 1475 1491 1503 1681    0
          477  508  545  584 1051 1080
         1316 1317 1321 1322 1323 1326
         1327 1328 1330 1331 1332 1334
         1335 1343 1346 1347 1349 1518
         1532 1549 1562 1693    0
          437  466  468  498  502  505
          535  537  539  580  582  623
          625  626  670  716  717  759
         1037 1048 1062 1064 1078 1097
         1115 1155 1500 1514 1529 1545
         1574 1576 1588 1599 1610    0
          368  375  379  407  410  413
          442  445  470  473  476  507
          542  544  583 1012 1015 1026
         1039 1050 1079 1470 1473 1488
         1517 1531 1548 1561    0
          464  465  497  499  501  504
          532  534  536  538  541  576
          578  579  581  621  622  624
         1047 1061 1063 1076 1077 1095
         1096 1114 1512 1513 1530 1543
         1547 1575    0
          617  619  665  667  668  669
          709  711  713  714  715  755
          757  758  794 1113 1134 1135
         1153 1154 1172 1572 1596 1598
         1609 1620 1645 1694    0
          495  496  529  530  531  533
          572  574  575  577  612  614
          616  618  620  664 1060 1074
         1075 1093 1094 1111 1112 1528
         1542 1544 1570 1573    0
          661  663  666  704  706  708
          710  712  751  753  754  756
          789  791  792  793  820 1132
         1133 1151 1152 1170 1171 1185
         1594 1597 1617 1619 1629    0
          527  528  569  570  571  573
          608  610  611  613  615  657
          660  662  705  707 1073 1091
         1092 1109 1110 1131 1540 1541
         1560 1568 1571 1595    0
          659  699  701  703  747  749
          750  752  783  785  787  788
          790  816  818  819  837  838
         1130 1149 1150 1168 1169 1183
         1184 1194 1592 1615 1618 1628
         1635 1636    0
          694  743  745  778  780  782
          812  814  815  817  832  834
          835  836  847 1147 1166 1181
         1182 1192 1193 1199 1590 1613
         1632 1634 1641    0
          567  568  605  606  607  609
          653  655  656  658  696  698
          700  702  746  748  784  786
         1090 1107 1108 1128 1129 1148
         1167 1559 1567 1569 1593 1616
            0
          809  811  813  831  833  844
          845  846  850  851 1180 1191
         1198 1201 1235 1236 1237 1238
         1239 1240 1241 1242 1246 1247
         1248 1249 1633 1643 1644 1659
         1660 1661 1662 1663    0
          652  654  695  697  740  742
          744  779  781 1127 1146 1165
         1228 1229 1230 1231 1232 1233
         1234 1243 1244 1245 1587 1591
         1614 1655 1656 1657 1658    0
          603  604  647  650  651  686
          688  690  691  692  693  733
          736  739  741  772  774  777
         1106 1124 1126 1143 1145 1162
         1164 1202 1203 1566 1585 1606
            0
          770  775  776  803  805  808
          810  824  825  827  828  829
          830  841  842  843  848  849
         1177 1179 1188 1190 1196 1197
         1200 1204 1205 1626 1639 1640
         1642    0
          565  566  597  599  601  602
          640  643  645  648  649  682
          684  689  728  731 1089 1103
         1105 1122 1125 1141 1557 1558
         1565 1582 1586 1604    0
          687  734  737  738  766  768
          771  773  799  801  804  806
          807  822  823  826  839  840
         1144 1160 1163 1175 1178 1187
         1189 1195 1608 1624 1627 1631
         1637 1638    0
          525  526  559  561  563  564
          593  595  598  600  635  638
          641  644  678  680  724 1072
         1086 1088 1101 1104 1120 1139
         1539 1555 1556 1580 1603    0
          646  683  685  726  729  732
          735  763  764  767  769  797
          798  800  802  821 1123 1142
         1158 1161 1174 1176 1186 1584
         1607 1623 1625 1630    0
          493  494  517  520  523  524
          551  554  557  560  589  591
          596  631  633 1059 1068 1071
         1084 1087 1099 1526 1527 1537
         1552 1579    0
          594  636  639  642  674  676
          679  681  720  722  725  727
          730  761  762  765  795  796
         1102 1118 1121 1137 1140 1157
         1159 1173 1583 1601 1605 1612
         1621 1622    0
          562 1713 1718 1719 1720 1721
         1714 1715 1716 1717 1736 1735
            0
          458  461  479  481  483  486
          489  492  510  512  514  518
          521  547  549  552  555  558
          587 1044 1053 1055 1058 1066
         1069 1082 1085 1509 1520 1522
         1525 1534 1551 1554    0
          546  548  585  586  590  592
          627  628  629  630  632  634
          637  671  672  673  675  677
          718  719  721  723  760 1081
         1098 1100 1116 1117 1119 1136
         1138 1156 1550 1563 1577 1578
         1581 1589 1600 1602 1611    0
          423  451  453  462  480  484
          487  490  511  513  515  522
          550  553  556  588 1032 1042
         1045 1054 1056 1067 1070 1083
         1271 1278 1280 1285 1494 1506
         1510 1521 1523 1535 1538 1553
         1564    0
          303  340  346  350  354  386
          389  392  399  427  430  433
          455  986 1002 1005 1019 1022
         1034 1258 1261 1268 1445 1459
         1462 1463 1478 1482 1496    0
          459  482  519 1270 1272 1678
         1273 1274 1275 1276 1277 1279
         1281 1282 1283 1284 1294 1295
         1296 1297 1298 1299 1673 1674
         1675 1676 1677    0
          299  343  396  425 1250 1251
         1252 1253 1254 1255 1256 1257
         1259 1260 1262 1263 1264 1265
         1266 1267 1286 1287 1288 1289
         1290 1291 1292 1293 1664 1665
         1666 1667 1668 1669 1670 1671
         1672    0
         1269 1704 1709 1710 1711 1712
         1705 1706 1707 1708 1734 1733
            0
          341  387  390  400  424  428
          431  434  452  454  456  463
          485  488  491  516 1003 1020
         1023 1033 1035 1043 1046 1057
         1460 1479 1483 1495 1497 1507
         1511 1524 1536    0
          196  239  243  246  249  291
          293  296  304  347  351 1446  
          393  942  962  964  983  987
         1006 1412 1423 1425 1426 1441
            0
          355 1695 1700 1701 1702 1703
         1696 1697 1698 1699 1732 1731
            0
          240  292  294  342  344  348
          352  388  391  394  397  426
          429  432  457  460  963  984
         1004 1007 1021 1036 1424 1442
         1461 1480 1508    0
          139  141  143  188  189  191
          193  241  244  247  297  300
          918  919  940  965 1396 1397
         1409    0
          190  242  245  295  298  301
          345  349  356  395  398  401
          402  435  941  966  985  988
         1008 1009 1024 1410 1443 1481
         1484 1498    0
           60   96   97   98  100  140
          142  145  192  194  197  199
          250  305  307  881  898  899
          920  921  943  967 1374 1385
         1387 1413 1447    0
          195  198  200  248  251  252
          254  302  306  308  309  311
          353  357  358  359  403  404
          922  944  945  968  969  989
          990 1010 1411 1444 1449 1464
         1485 1486    0
           33   34   61   62   64   99
          101  102  104  106  144  146
          147  149  202  204  868  882
          883  900  901  923 1365 1366
         1375 1386 1389 1415    0
          150  201  203  205  253  255
          256  258  310  312  313  314
          360  361  924  946  947  970
          971  991 1414 1448 1450 1465
            0
           15   35   36   37   39   63
           65   66   68  103  105  107
          109  111  148  151  153  207
          209  859  869  870  884  885
          902  903  925 1358 1367 1369
         1388 1391 1417    0
          108  110  152  154  157  206
          208  210  211  213  257  259
          260  261  315  316  904  926
          927  948  949  972 1390 1416
         1419 1427 1451 1452    0
            5    6   16   17   19   38
           40   41   43   45   67   69
           70   72  112  114  116  155
          854  860  861  871  872  886
          887  905 1353 1354 1359 1368
         1371 1393    0
           73   75  113  115  156  158
          160  212  888  906  928 1214
         1215 1216 1217 1218 1219 1220
         1225 1226 1227 1392 1418 1651
         1652 1653 1654    0
            1    2    7    8   18   20
           22   42   44   71  852  855
          862  873 1206 1207 1208 1209
         1210 1211 1212 1213 1221 1222
         1223 1224 1350 1355 1370 1646
         1647 1648 1649 1650    0
           49   78   80   83  117  118
          119  120  122  124  159  161
          163  165  168  214  215  216
          218  220  262  263  876  889
          891  907  909  929  931  950
         1378 1400 1420 1428    0
            3    4    9   10   11   12
           13   21   23   24   26   28
           46   47   48   51   53   74
           76  853  856  857  863  865
          874 1351 1352 1356 1361    0
          126  162  164  167  170  173
          217  219  222  224  264  265
          267  269  317  318  908  911
          930  933  951  953  973 1398
         1402 1429 1431 1453    0
           14   25   27   29   30   50
           52   55   56   77   79   82
           85   87  121  123  128  858
          864  866  875  878  890  893
         1357 1360 1362 1376 1379    0
          172  175  178  221  223  226
          228  266  268  271  273  276
          319  320  322  324  362  363
          913  932  935  952  955  974
          976  992 1404 1430 1434 1454
         1466 1467    0
           31   32   54   57   58   81
           84   86   89   91  125  127
          130  132  166  169  867  877
          879  892  895  910 1363 1364
         1372 1377 1381 1399    0
          230  270  272  275  279  282
          321  323  327  330  364  365
          367  371  405  406  954  957
          975  979  993  995 1011 1432
         1436 1468 1472 1487    0
           59   88   90   92   93  129
          131  134  135  171  174  177
          180  182  225  227  232  880
          894  896  912  915  934  937
         1373 1380 1382 1401 1405    0
          285  288  326  333  336  339
          366  370  374  378  381  382
          385  409  416  419  422  436
          439  447  450  982  994  998
         1001 1014 1018 1025 1031 1438
         1458 1469 1474 1477 1490 1493
         1499 1502 1505    0
           94   95  133  136  137  138
          176  179  181  184  185  186
          187  229  234  236  238  274
          278  281  287  290  897  914
          916  917  936  939  956  959
          961  978 1383 1384 1394 1395
         1403 1407 1408 1422 1433 1440
            0
          329  369  373  377  408  412
          415  418  421  438  441  444
          449  467  472  475  478  509
          997 1013 1017 1028 1030 1038
         1041 1052 1471 1489 1492 1501
         1504 1515 1516 1519 1533    0
          183  231  233  235  237  277
          280  284  289  325  332  335
          338  384  938  958  960  977
          981 1000 1406 1421 1435 1439
         1455 1457 1476    0
 $END
 $FMOBND
      -852       9
      -858      13
      -859      16
      -860      18
      -861      21
      -862      46
      -875      48
      -877      52
      -878      53
      -879      56
      -880      58
      -881      61
      -882      63
      -883      66
      -884      67
      -885      70
      -886      71
      -887      74
      -888     117
      -899     143
      -908     119
      -910     123
      -911     124
      -912     127
      -913     128
      -914     131
      -915     132
      -916     135
      -918     140
      -920     144
      -921     147
      -922     148
      -923     151
      -924     152
      -925     155
      -926     156
      -927     159
      -928     214
      -936     231
      -938     185
      -942     193
      -943     247
      -951     216
      -952     219
      -953     220
      -954     223
      -955     224
      -956     227
      -957     228
      -959     232
      -960     286
      -962     241
      -963     242
      -964     299
      -966     248
      -967     252
      -968     253
      -969     256
      -970     257
      -971     260
      -972     262
      -977     328
      -978     329
      -981     287
      -983     343
      -987     300
      -988     352
      -992     318
      -993     320
      -994     323
      -995     324
      -998     330
      -999     379
      -1000     380
      -1003     344
      -1004     345
      -1005     458
      -1006     396
      -1008     353
      -1009     358
      -1010     360
      -1012    1311
      -1013     411
      -1014     412
      -1017     381
      -1019     481
      -1020     425
      -1023     397
      -1024     432
      -1025     406
      -1026     499
      -1029     445
      -1030     446
      -1033     426
      -1034     518
      -1035     459
      -1037    1321
      -1038     469
      -1041     447
      -1042     548
      -1043     482
      -1046     460
      -1047     496
      -1048     578
      -1050     504
      -1051     505
      -1052     506
      -1055     517
      -1056     590
      -1057     519
      -1058     523
      -1059     525
      -1062    1330
      -1067     629
      -1073     568
      -1074     570
      -1075     573
      -1076     574
      -1077     577
      -1078     667
      -1079     581
      -1080     582
      -1082     589
      -1083     675
      -1084     593
      -1085     594
      -1086     597
      -1087     598
      -1088     601
      -1089     603
      -1107     651
      -1108     654
      -1109     655
      -1110     658
      -1111     659
      -1112     662
      -1113     663
      -1114     666
      -1115     669
      -1117     674
      -1118     678
      -1119     679
      -1120     682
      -1121     683
      -1122     686
      -1123     687
      -1125     691
      -1146     693
      -1147     741
      -1148     744
      -1149     745
      -1150     748
      -1151     749
      -1152     752
      -1153     753
      -1154     756
      -1155     758
      -1156     761
      -1157     763
      -1158     766
      -1159     767
      -1160     770
      -1161     771
      -1163     775
      -1180     777
      -1181     810
      -1182     813
      -1183     814
      -1184     817
      -1185     819
      -1186     822
      -1187     824
      -1189     828
      -1198     830
      -1199     846
      -1222      11
      -1224      49
      -1226     120
      -1243     690
      -1245     774
      -1247     827
      -1249     849
      -1288    1258
      -1289    1261
      -1292    1268
      -1293    1271
      -1296    1278
      -1297    1280
      -1299    1285
      -1336    1303
      -1337    1306
      -1340    1313
      -1341    1316
      -1344    1323
      -1345    1326
      -1348    1332
      -443    1027
      -1317    1342
      -470    1048
      -619    1095
      -668    1114
      -1133     664
      -661    1111
      -1130     657
      -705    1150
      -784    1182
      -696    1147
      -779    1180
      -1246    1234
      -776    1164
      -772    1177
      -731    1160
      -689    1144
      -644    1123
      -1139     726
      -1102     596
      -633    1118
      -592    1085
      -587    1098
      -455    1042
      -393    1020
      -297     984
      -305     988
      -941     192
      -202     945
      -146     922
      -207     947
      -150     902
      -905     157
      -110     886
      -873      73
      -1215    1224
       -51     876
      -889      76
      -893     126
      -121     908
      -169     932
      -326     978
      -332     997
      -1272    1293
      -130     913
      -937     230
      -225     954
      -285     959
      -1310   1341
      -562    1087
      -1294   1269
      -355     987
 $END
 $DATA
 FMO   8calculation : 60 Fragment MSN   7single pore
 C1 
 O.1-1    8
      N31 6 
   
 C.1-1    6
      N31 6 
   
 Si.1-1  14
      N31 6 
   
 H.1-1    1
      N31 6 
   
 N.1-1    7
      N31 6 
   
 $END
 $FMOXYZ
O   8       -21.79786       -3.77987        7.10271
O   8       -22.34835       -2.16326        9.16430
O   8       -20.06804        2.86323        6.53520
O   8       -21.78732        4.61624        7.60544
O   8       -20.03325       -6.29598        7.82078
O   8       -18.69425       -5.31238        5.72718
O   8       -19.41831       -5.80463       10.74295
O   8       -20.37652       -3.85833        9.28712
O   8       -20.19009       -1.71346        7.64354
O   8       -19.00671        0.17887        6.23337
O   8       -19.54331        1.49659       11.05153
O   8       -20.10773        3.24834        9.16920
O   8       -19.16246        5.14799        7.59953
O   8       -19.32112        7.04783        5.71604
O   8       -18.60854      -10.26097        5.01800
O   8       -18.62742       -7.91572        6.27508
O   8       -17.35729       -6.17129        7.89237
O   8       -17.77433       -4.13808        9.51547
O   8       -16.91782       -3.44011        4.32874
O   8       -19.17729       -3.25730       11.60695
O   8       -17.82102       -2.17377        6.45767
O   8       -18.62948       -1.32002       13.35370
O   8       -17.98850       -0.54474        8.58771
O   8       -17.75460        2.00952        9.20696
O   8       -17.90220        3.29309        4.59832
O   8       -18.33763        3.82787       11.09272
O   8       -17.16376        5.49597        5.88317
O   8       -17.34215        5.35830       13.04774
O   8       -17.65838        7.29397        7.78442
O   8       -16.57859        8.75402        9.72792
O   8       -15.50399        7.78514        3.80850
O   8       -17.14156        9.17478        5.41486
O   8       -17.19013      -12.89847        4.80105
O   8       -16.34724      -12.66043        2.27325
O   8       -16.35116      -12.38781        7.59005
O   8       -17.01416       -9.83619        7.10672
O   8       -16.53824       -8.60792        4.77429
O   8       -16.88426       -6.75156       11.98126
O   8       -17.44355       -6.56085        3.34128
O   8       -15.65310       -5.64314        9.89420
O   8       -15.78806       -4.02169        7.82633
O   8       -16.41037       -5.85261       14.71457
O   8       -15.18261       -2.35457        6.02304
O   8       -17.41045       -3.71963       13.49392
O   8       -16.70153       -0.73192        4.50572
O   8       -16.86612       -2.04360       11.49696
O   8       -16.17958        0.23317       10.38645
O   8       -15.88650        0.79661        7.76793
O   8       -16.92899        0.98833       15.19122
O   8       -16.09430        3.15536        6.54252
O   8       -17.11125        2.70157       13.14790
O   8       -15.48076        4.34112        4.20607
O   8       -15.73566        4.11627       11.32092
O   8       -13.66834        5.49951        2.64380
O   8       -16.22837        6.10341        9.70388
O   8       -15.04770        7.54036        7.88233
O   8       -14.49898        9.12323        5.87529
O   8       -15.38394       10.45234        3.80473
O   8       -14.66107       12.55079        2.35685
O   8       -14.76653      -16.85572        2.33406
O   8       -15.52185      -14.71947        3.74742
O   8       -14.65136      -12.24570        4.25826
O   8       -14.63483      -10.74512        6.41778
O   8       -14.70194      -10.34549        1.80587
O   8       -15.23956      -10.45513        9.00530
O   8       -15.21911       -7.85088        2.60872
O   8       -15.41363       -8.19977       10.32484
O   8       -15.24190       -6.29371        4.79493
O   8       -14.23620       -6.39661       11.97710
O   8       -13.78296       -4.62122        6.19226
O   8       -14.77370       -4.24832       13.41073
O   8       -13.45494       -2.76458        8.06200
O   8       -15.93835       -3.41673       15.68122
O   8       -14.58350       -1.85185       10.25038
O   8       -15.15543       -1.65361       17.50571
O   8       -14.93656       -0.64206       12.62572
O   8       -14.64919        1.20394        5.44494
O   8       -14.77981        1.70718       13.82144
O   8       -13.81780        2.37364        7.69878
O   8       -16.00540        3.48865       15.39502
O   8       -13.04115        3.28856        4.04970
O   8       -14.15397        4.50607        9.20233
O   8       -16.23739        4.17728       17.92568
O   8       -13.46328        5.63174        5.30657
O   8       -14.08308        6.18718       11.26526
O   8       -12.62904        7.56516        6.91324
O   8       -15.49668        8.14324       12.36731
O   8       -13.31640        8.51414        1.92172
O   8       -13.57160        9.70271        8.26872
O   8       -12.83521       10.78233        3.21150
O   8       -14.34946       10.43461       10.69003
O   8       -14.01719       12.41523        4.96973
O   8       -13.80532       15.00789        5.58857
O   8       -13.12121       14.23531        0.39106
O   8       -13.91307       15.37223        2.66550
O   8       -12.92470      -17.99562        6.72258
O   8       -13.74836      -16.40334        4.73627
O   8       -13.08391      -14.82025        2.65970
O   8       -13.86437      -13.39644        8.95850
O   8       -13.80810      -13.00632        0.84525
O   8       -13.26813      -12.98754        6.42315
O   8       -12.43137      -10.97577        4.93303
O   8       -13.16318      -12.59624       11.70956
O   8       -12.91398       -9.00621        3.24852
O   8       -13.79435      -10.07019       11.16577
O   8       -13.38541       -8.28357        0.71567
O   8       -13.20151       -8.77127        8.90691
O   8       -13.85983       -6.88565       15.93020
O   8       -13.70948       -7.22321        6.77321
O   8       -12.58604       -5.70759       13.91436
O   8       -12.59662       -6.28947        4.50695
O   8       -12.76136       -4.20353       11.69731
O   8       -13.56299       -6.45377       18.80951
O   8       -11.98293       -2.22685       10.20293
O   8       -14.47882       -4.21396       17.75480
O   8       -13.02082       -0.23794        8.75995
O   8       -13.42616       -2.72805       15.81920
O   8       -13.38812       -0.30175       14.76665
O   8       -12.71857        0.78354       12.41261
O   8       -13.97740        2.25662       19.52845
O   8       -13.20592        2.30198       10.30793
O   8       -14.03011        2.95115       17.01965
O   8       -11.69233        3.58422        8.57422
O   8       -14.42325        5.43366       16.30758
O   8       -11.21462        5.33423        6.64648
O   8       -14.22313        6.34639       13.89715
O   8       -11.35271        7.06986        4.64320
O   8       -12.85462        8.16898       12.53691
O   8       -10.89665        8.97619        2.91832
O   8       -11.97268        9.26155       10.33058
O   8       -11.70435       10.39491        0.83523
O   8       -12.33175       11.71018        9.39870
O   8       -10.78101       12.61812       -0.28351
O   8       -12.83314       13.14317        7.25641
O   8       -11.63721       13.57450        4.99253
O   8       -11.49918       14.25577        2.44499
O   8       -11.99434       16.54934        1.16599
O   8       -10.61408       18.59770        0.14913
O   8       -12.38375      -18.53130        1.63704
O   8       -11.98778      -18.33751        4.25351
O   8       -11.86799      -17.43095       -1.22042
O   8       -11.29354      -16.18704        5.65712
O   8       -12.45544      -15.20333        0.10373
O   8       -11.85879      -14.73023        7.79843
O   8       -11.23279      -13.31630        1.47608
O   8       -11.55224      -12.13936        8.30485
O   8       -11.19284      -10.93164        2.59969
O   8       -11.37299      -10.94559       10.62886
O   8       -10.59623       -9.16692        4.53487
O   8       -12.12424      -10.60561       13.16076
O   8       -11.45207       -8.61493        6.96768
O   8       -12.23512       -8.30662       14.41931
O   8       -11.89388       -6.51408        8.56259
O   8       -11.23100       -6.46180       16.07763
O   8       -10.81407       -4.54186        9.90358
O   8       -11.86426       -4.63215       17.87125
O   8       -10.32365       -3.12297       12.07850
O   8       -13.22948       -4.12601       20.10632
O   8       -11.63456       -2.09248       14.03008
O   8       -13.28111       -1.59459       20.89662
O   8       -11.48390       -1.10404       16.49693
O   8       -10.69934        1.68898       10.94928
O   8       -12.49562        0.97424       17.72552
O   8       -12.08667        3.33701       12.54032
O   8       -11.85178        3.43267       18.56037
O   8        -9.19019        4.27351        7.96517
O   8       -12.41980        4.60124       14.82209
O   8       -11.78514        3.71394       21.19078
O   8       -10.84732        5.96902        9.22071
O   8       -12.39024        7.09655       15.71605
O   8        -8.83223        7.78558        4.18379
O   8       -10.57972        7.35663       11.49698
O   8       -12.15268        8.06870       18.16705
O   8       -10.50911        9.42235        5.49079
O   8       -10.81213        9.76083       12.69671
O   8        -9.85045       10.23472       -1.07819
O   8       -10.95441       11.30333        7.17502
O   8       -10.22440       12.29986       13.09010
O   8        -9.20506       11.14664        1.33988
O   8       -10.53213       13.50924        8.57879
O   8        -9.77421       12.57498        3.50243
O   8        -9.80355       14.43604       10.93014
O   8        -9.90901       15.08156       -1.63361
O   8        -9.70805       15.17235        4.22467
O   8        -9.41793       16.27025        0.70433
O   8       -10.19230       16.14642        6.65736
O   8       -10.24522       17.83190        2.71131
O   8       -10.48704      -20.01384        2.86050
O   8       -10.15659      -17.37609        2.55452
O   8       -10.82740      -18.13249        8.97853
O   8        -9.99868      -16.22130        0.19284
O   8        -9.61712      -16.18158        7.68757
O   8       -10.77986      -15.07136       -1.99770
O   8        -9.91423      -14.01170        6.20104
O   8       -10.68477      -13.77264       12.71555
O   8        -9.71227      -13.51006       -3.86635
O   8       -10.05049      -12.96981        3.81015
O   8        -9.99049      -13.12692       10.18538
O   8        -8.98365      -11.98494        1.50528
O   8        -9.29190      -10.80063        9.01062
O   8        -9.33196      -12.53386       15.44032
O   8        -9.05153       -9.65021        6.63266
O   8       -10.27087      -10.07301       14.95379
O   8        -9.52075       -7.12598        5.80747
O   8       -10.30973       -8.81538       12.62359
O   8        -8.04875       -7.23230       19.81586
O   8       -10.46010       -7.03195       10.72397
O   8        -9.57129       -5.93642       18.07230
O   8        -9.27661       -6.09807        8.45502
O   8        -9.96884       -4.12861       16.11041
O   8        -9.04983       -2.40789       14.32855
O   8       -12.18589       -3.42235       22.46305
O   8        -9.93065       -0.54114       12.63546
O   8       -10.98862       -2.71100       20.15729
O   8       -10.63918       -0.40589       18.92580
O   8        -9.97779        1.04452       16.80822
O   8       -10.83758        2.50118       14.73812
O   8        -9.83178        2.40070       19.95316
O   8       -10.05492        4.73572       13.53552
O   8       -10.06102        5.07817       19.60614